%NProcShared=32
%Chk=tddft
#P B3LYP/aug-cc-pVDZ TD(NStates=30,Root=0)

TD-DFT excited state calculation: B3LYP/aug-cc-pVDZ

   0   1
C         10.78830        5.60957       26.31730
C          9.92421        6.47424       25.63038
C         12.00347        5.21621       25.73742
C         10.27019        6.93771       24.33700
C         11.47751        6.53025       23.74973
C         12.35030        5.68044       24.44474
C         12.88610        4.37527       26.43378
C         14.10475        4.00577       25.85792
C         14.44717        4.46338       24.58321
C         13.57402        5.29381       23.87450
C          8.72180        6.89549       26.21979
C          7.87542        7.77343       25.53757
C          8.21584        8.23016       24.26138
C          9.40604        7.81226       23.65865
H          8.44182        6.55450       27.20957
H          6.95432        8.10375       26.00104
H          7.55741        8.91257       23.73981
H          9.65406        8.17971       22.66967
H         10.52354        5.25562       27.30812
H         13.85852        5.64034       22.88784
H         15.39452        4.17703       24.14417
H         12.63870        4.01237       27.42454
H         14.78634        3.36575       26.40315
H         11.74398        6.88702       22.76106

