4x4_si_surface_from540eV_1x1x1conv      
   1.00000000000000     
    15.3329877853000003    0.0000000000000000    0.0000000000000000
     7.6664938927000001   13.2787569380000008    0.0000000000000000
     0.0000000000000000    0.0000000000000000   37.5579948425000012
   C    H    Si
    16    42   192
Selective dynamics
Direct
  0.5780866328601917  0.4445264105426361  0.6102034880349336   T   T   T
  0.5299234037569676  0.3961063603029942  0.6265349145809083   T   T   T
  0.6342608034298891  0.4760294984703179  0.6312450314212228   T   T   T
  0.5373304754499841  0.3811785131175540  0.6647161468080967   T   T   T
  0.6422148555454399  0.4591458458074769  0.6692092823682074   T   T   T
  0.5761488663972045  0.4580351550423813  0.5714297891974667   T   T   T
  0.5929827355504926  0.4128922306179348  0.6849261136709615   T   T   T
  0.4775620181280829  0.3566789020311489  0.6069428879387999   T   T   T
  0.6821371061544852  0.5268640845182659  0.6162829202635791   T   T   T
  0.4888793724173723  0.3325768191122620  0.6810633640253201   T   T   T
  0.6995143712832714  0.4907715340806291  0.6898571144225514   T   T   T
  0.4946327476070209  0.4971783021788454  0.5499915717434121   T   T   T
  0.4328968983769172  0.3092777326300720  0.6235892167917712   T   T   T
  0.7370807520666887  0.5559114938569110  0.6369979756638244   T   T   T
  0.4373769839829436  0.2979813937227931  0.6611878557229289   T   T   T
  0.7463814841977197  0.5373493120059791  0.6742372893900423   T   T   T
  0.5984548868591659  0.4008297762313120  0.7137062279381752   T   T   T
  0.4745395366746266  0.3630323774089135  0.5780837051989209   T   T   T
  0.6739359363056181  0.5439615477896709  0.5879048158235989   T   T   T
  0.4946592449906007  0.3227936948155588  0.7099246717609446   T   T   T
  0.7050460298496901  0.4771665496791897  0.7185212391062734   T   T   T
  0.6499777750573514  0.4329975399003061  0.5592574416613800   T   T   T
  0.4201213988770718  0.5262308085939154  0.5621156726118102   T   T   T
  0.3944203913875555  0.2791296973207480  0.6076896226062445   T   T   T
  0.7732490107615533  0.5942965917359331  0.6247927949854031   T   T   T
  0.4010837014377557  0.2606337571486605  0.6740408442724615   T   T   T
  0.7900957791605592  0.5609973542128728  0.6903353657045770   T   T   T
  0.0002580477204148  0.9998612010067376  0.0227768007834257   T   T   T
  0.5001712731761501  0.9998881200294463  0.0227770974547994   T   T   T
  0.0002728803301153  0.4998203532089960  0.0227635038106655   T   T   T
  0.5002772437598608  0.4997999387674739  0.0227704849633596   T   T   T
  0.2503082571443969  0.9998591590680661  0.0227858111896353   T   T   T
  0.7503235304823832  0.9998292792658319  0.0227698208719644   T   T   T
  0.2503090124619831  0.4997995529628767  0.0227701756751486   T   T   T
  0.7503060775861670  0.4997810691008908  0.0227727546966463   T   T   T
  0.0002824180897960  0.2497702837414622  0.0227710629189772   T   T   T
  0.5002843353214814  0.2498138776020440  0.0227664655772628   T   T   T
  0.0002970865640464  0.7497656501076051  0.0227562326351176   T   T   T
  0.5002863823289658  0.7497650672582097  0.0227563370936252   T   T   T
  0.2503513223963623  0.2497094033696925  0.0227784046865906   T   T   T
  0.7503151054540780  0.2497746010034660  0.0227771470563525   T   T   T
  0.2503326776742298  0.7497523325193782  0.0227632159956173   T   T   T
  0.7503488445558801  0.7497487374166241  0.0227550115442838   T   T   T
  0.0004688982562371  0.9998836807461728  0.5395248174483100   T   T   T
  0.5002712283439550  0.0002182571180711  0.5395111870000733   T   T   T
  0.0001655574494279  0.4993073937000574  0.5395271814319642   T   T   T
  0.2505812566876742  0.9995521697871865  0.5395641057779486   T   T   T
  0.7505105879845075  0.9997744555638945  0.5395882826906941   T   T   T
  0.2517548211154121  0.4990252833532054  0.5395598073153280   T   T   T
  0.7551010899741399  0.4994255964050112  0.5390067989181446   T   T   T
  0.0000733207076138  0.2501319637241934  0.5394333060403369   T   T   T
  0.5006729884024566  0.2472797236620110  0.5390298348514477   T   T   T
  0.0004826848416357  0.7495928114582284  0.5395688140683390   T   T   T
  0.5010039913979796  0.7487181780313250  0.5396459597963101   T   T   T
  0.2515475244333345  0.2490621551037648  0.5395149612549304   T   T   T
  0.7527171204832328  0.2466736470947737  0.5396445924086848   T   T   T
  0.2507813926177178  0.7494756525289006  0.5395539514261500   T   T   T
  0.7505126001946962  0.7492293458376551  0.5395768834076904   T   T   T
  0.0002883933264357  0.9998115781622801  0.0628302253795994   T   T   T
  0.5002630078112844  0.9998202992325034  0.0628306284267381   T   T   T
  0.0002884789376552  0.4998024057582384  0.0628169710662974   T   T   T
  0.5002888051829686  0.4997979999702480  0.0628241911326626   T   T   T
  0.2502975131218932  0.9998110227829571  0.0628392000590168   T   T   T
  0.7503031217697185  0.9998034525703545  0.0628233050329214   T   T   T
  0.2502959694488069  0.4997968004988991  0.0628236847864159   T   T   T
  0.7502962375167215  0.4997928451564917  0.0628265048474503   T   T   T
  0.0002918145715185  0.2497895739923877  0.0628245234579836   T   T   T
  0.5002907767089511  0.2498009705626032  0.0628200413612490   T   T   T
  0.0002959491487502  0.7497882313164510  0.0628095067450829   T   T   T
  0.5002924288979855  0.7497900952316101  0.0628097252627811   T   T   T
  0.2503051375713241  0.2497768106276510  0.0628318720523424   T   T   T
  0.7502986503913291  0.2497917223509560  0.0628308394483525   T   T   T
  0.2503027186497278  0.7497872065027877  0.0628165268986436   T   T   T
  0.7503083195036737  0.7497864640679381  0.0628084298260063   T   T   T
  0.8336401705617931  0.8331217594495683  0.0832689983449768   T   T   T
  0.3336412057283482  0.8331190063887064  0.0832741893325704   T   T   T
  0.8336370571090370  0.3331251884987623  0.0832859509034733   T   T   T
  0.3336344199326433  0.3331267573275269  0.0832797236067861   T   T   T
  0.0836356337256632  0.8331188114101451  0.0832644660881670   T   T   T
  0.5836426931562357  0.8331194984665871  0.0832561800095277   T   T   T
  0.0836294386120002  0.3331316348466515  0.0832703531748606   T   T   T
  0.5836316005883191  0.3331274767723116  0.0832792715097739   T   T   T
  0.8336350651927447  0.0831300872261878  0.0832958851571846   T   T   T
  0.3336269433081185  0.0831336584507767  0.0833175964731723   T   T   T
  0.8336346708487525  0.5831289836232258  0.0832802938785235   T   T   T
  0.3336334371115584  0.5831266694453845  0.0832854663531180   T   T   T
  0.0836354069924852  0.0831315626579965  0.0832931777747064   T   T   T
  0.5836377255129150  0.0831301289642354  0.0832741672214397   T   T   T
  0.0836324785542075  0.5831271675072713  0.0832759423487630   T   T   T
  0.5836303125023079  0.5831302893404526  0.0832771964087300   T   T   T
  0.8336388818387732  0.8331193232488872  0.1457393586963391   T   T   T
  0.3336414206374414  0.8331133279932175  0.1457441300569187   T   T   T
  0.8336357669183840  0.3331251127545798  0.1457565228442093   T   T   T
  0.3336330400465499  0.3331261796558778  0.1457498537870734   T   T   T
  0.0836380450991356  0.8331114660862085  0.1457334981786147   T   T   T
  0.5836521995331054  0.8331110358920384  0.1457246121387143   T   T   T
  0.0836232600661262  0.3331392509218531  0.1457393755189500   T   T   T
  0.5836293032183235  0.3331253987942020  0.1457493568953012   T   T   T
  0.8336354496246656  0.0831269478089780  0.1457679779520902   T   T   T
  0.3336220481202474  0.0831366056409024  0.1457915048837890   T   T   T
  0.8336334074917744  0.5831278445307575  0.1457518661939972   T   T   T
  0.3336338570217876  0.5831223840924622  0.1457570810324924   T   T   T
  0.0836379998959274  0.0831268103169478  0.1457645013195901   T   T   T
  0.5836419387194809  0.0831228443557208  0.1457437524898992   T   T   T
  0.0836339318674177  0.5831217665142034  0.1457467646314115   T   T   T
  0.5836285154369776  0.5831272719074434  0.1457477450277054   T   T   T
  0.6669673453367793  0.6664618176516086  0.1666623672806011   T   T   T
  0.1669662543239170  0.6664561027557525  0.1666676539591165   T   T   T
  0.6669589503534255  0.1664643247077038  0.1666750664453502   T   T   T
  0.1669233381775257  0.1665122617277817  0.1666906160416843   T   T   T
  0.9169774075421842  0.6664587787497851  0.1666675660839516   T   T   T
  0.4169769552353557  0.6664529142481186  0.1666734652485431   T   T   T
  0.9169790574111829  0.1664627558257479  0.1666842980028207   T   T   T
  0.4170033589210504  0.1664680922933357  0.1666785923642422   T   T   T
  0.6669770485211970  0.9164438115932469  0.1666525052969519   T   T   T
  0.1669795670191547  0.9164266852236693  0.1666589992800098   T   T   T
  0.6669670600837350  0.4164587410476699  0.1666657992938241   T   T   T
  0.1669699032622773  0.4164525300843778  0.1666656027478695   T   T   T
  0.9169924138607044  0.9164294251028835  0.1666627846404012   T   T   T
  0.4170230131393780  0.9164054610836416  0.1666607125944495   T   T   T
  0.9169798306864507  0.4164582698069239  0.1666698429318174   T   T   T
  0.4169757633665157  0.4164479232284961  0.1666725300333027   T   T   T
  0.6669125556880147  0.6665024757455171  0.2291056662924689   F   F   F
  0.1669138819402107  0.6664901375424179  0.2291111648021982   F   F   F
  0.6669034362224693  0.1665057241670524  0.2291189134054221   F   F   F
  0.1668406128775217  0.1666081398529755  0.2291364073638391   F   F   F
  0.9169253110442313  0.6664985418682576  0.2291113883231830   F   F   F
  0.4169251919051291  0.6664786934742253  0.2291182279588142   F   F   F
  0.9169251322956384  0.1665024310124181  0.2291285842624902   F   F   F
  0.4169641435436446  0.1665143519324772  0.2291205376401635   F   F   F
  0.6669179797256604  0.9164823293943769  0.2290929406929791   F   F   F
  0.1669495105540264  0.9164407253494673  0.2290971726281654   F   F   F
  0.6669159532031230  0.4164896309061419  0.2291063070348756   F   F   F
  0.1669205874301483  0.4164758920448293  0.2291075587257652   F   F   F
  0.9169487357607125  0.9164632558469705  0.2291038781512142   F   F   F
  0.4170103072717666  0.9164042473114833  0.2290992438782524   F   F   F
  0.9169383645095124  0.4164917469174654  0.2291131317602364   F   F   F
  0.4169203638937233  0.4164794385364345  0.2291160970942627   F   F   F
  0.5002796054066039  0.4997938573608351  0.2499375194380065   F   F   F
  0.0002866708467195  0.4998232424156157  0.2499379515697058   F   F   F
  0.5002866387433258  0.9998005032389443  0.2499092519278676   F   F   F
  0.0003207845873732  0.9997660517460716  0.2499157339299316   F   F   F
  0.7502815127275966  0.4998175501659290  0.2499080598248256   F   F   F
  0.2502545416082285  0.4997989237236240  0.2499233186266423   F   F   F
  0.7502882480860009  0.9997720718125862  0.2498963922157884   F   F   F
  0.2503221034838035  0.9998109936787216  0.2498248070576565   F   F   F
  0.5003188848181708  0.7497310638701578  0.2499738633644029   F   F   F
  0.0002838932234681  0.7497983575185145  0.2499500811043589   F   F   F
  0.5002942085047550  0.2498477250160178  0.2499953359430975   F   F   F
  0.0001669021917721  0.2498924583448101  0.2500130534224994   F   F   F
  0.7502693533567282  0.7498230934182359  0.2499217987105737   F   F   F
  0.2502865791157731  0.7497724294891341  0.2499513774994497   F   F   F
  0.7502545714232269  0.2498280257323273  0.2499453872435495   F   F   F
  0.2503488361831288  0.2498228400812650  0.2499564588143812   F   F   F
  0.5004931092226101  0.4996302127508656  0.3123724162644663   F   F   F
  0.0005073074598272  0.4996896386446963  0.3123749196462455   F   F   F
  0.5005133748238606  0.9996258616658764  0.3123319149010015   F   F   F
  0.0005907203264073  0.9995633959543753  0.3123408257867268   F   F   F
  0.7504622935823662  0.4997072518144492  0.3123290538856480   F   F   F
  0.2504442930578961  0.4996555745374849  0.3123495876762092   F   F   F
  0.7505112886462513  0.9995767474300337  0.3123113811104403   F   F   F
  0.2506021856937011  0.9996067881937734  0.3122025132111546   F   F   F
  0.5005670189683116  0.7495027780438477  0.3124268650977555   F   F   F
  0.0005013006425543  0.7496383786131204  0.3123914301389519   F   F   F
  0.5005384683693350  0.2497435361219473  0.3124567568426357   F   F   F
  0.0002254179400794  0.2498504370168604  0.3124793469996305   F   F   F
  0.7504621148548907  0.7496925592117520  0.3123511374128256   F   F   F
  0.2505179047636474  0.7495799064983260  0.3123927116503893   F   F   F
  0.7504108548276491  0.2497073114209272  0.3123839497609069   F   F   F
  0.2506636977256775  0.2497036308053282  0.3123970627878947   F   F   F
  0.3339116275571499  0.3331378698062295  0.3333103358817837   F   F   F
  0.8334047794162274  0.3332540989086397  0.3333206176873418   F   F   F
  0.3338057994478589  0.8330638408888689  0.3331225514425569   F   F   F
  0.8338403701867065  0.8329530954322806  0.3332050442650072   F   F   F
  0.5838721990574456  0.3331059813544712  0.3333234190882237   F   F   F
  0.0839866548773287  0.3329563141070579  0.3331536948783267   F   F   F
  0.5838290452626396  0.8329817652845719  0.3331898748982027   F   F   F
  0.0838857739733641  0.8329111933926114  0.3332307338686178   F   F   F
  0.3338453769512810  0.5828402638240959  0.3332006633335780   F   F   F
  0.8338185548725789  0.5830264687536371  0.3331642747029875   F   F   F
  0.3338451683463433  0.0828995778851720  0.3331079184994934   F   F   F
  0.8338819742466796  0.0828833878154995  0.3330821991019590   F   F   F
  0.5839840173911028  0.5827344655926439  0.3332627713617029   F   F   F
  0.0838620215267838  0.5829758048245424  0.3332450687925714   F   F   F
  0.5839003920401851  0.0829078480870109  0.3331490755156352   F   F   F
  0.0840682611008248  0.0828958079539746  0.3330352902345552   F   F   F
  0.3338187452642742  0.3328786783124755  0.3956733999053696   T   T   T
  0.8335028108573184  0.3331025807482604  0.3957748241715677   T   T   T
  0.3338505245795389  0.8329287250477506  0.3955770444178341   T   T   T
  0.8338735024280197  0.8329389736234134  0.3956551333169784   T   T   T
  0.5840137814511550  0.3329647390502544  0.3957567687650112   T   T   T
  0.0842278809877115  0.3327772018248254  0.3955571781867278   T   T   T
  0.5838550521425674  0.8329788066966444  0.3956281077783146   T   T   T
  0.0839125834763905  0.8328795802366429  0.3956816820997275   T   T   T
  0.3338360978379100  0.5828979387169966  0.3956103809194360   T   T   T
  0.8338607445196402  0.5829870135635744  0.3955996446018730   T   T   T
  0.3338673558749790  0.0826386355971636  0.3955468943624894   T   T   T
  0.8339604550040178  0.0828425060186149  0.3955334633892775   T   T   T
  0.5838891154278301  0.5828087355952292  0.3957293139586042   T   T   T
  0.0839156149450915  0.5829199267619316  0.3956958685980183   T   T   T
  0.5839971684973762  0.0828425649038280  0.3955937167418426   T   T   T
  0.0839992826180023  0.0828638018416896  0.3955134950484691   T   T   T
  0.1673015444520516  0.1661583889489222  0.4165442736842806   T   T   T
  0.6673971247533217  0.1661503802405946  0.4165207390548602   T   T   T
  0.1672874001228308  0.6662016379020201  0.4166371282410992   T   T   T
  0.6671770895466835  0.6663107459372810  0.4165210219262150   T   T   T
  0.4171867025276015  0.1660073731127625  0.4163441488432724   T   T   T
  0.9173302033907333  0.1661721962531288  0.4164357976227819   T   T   T
  0.4171351449128480  0.6662582414615912  0.4164999796448186   T   T   T
  0.9172150972223321  0.6662570223614708  0.4165767961166509   T   T   T
  0.1672578615881548  0.4162719323361301  0.4166547576211883   T   T   T
  0.6669577486925959  0.4164344500049140  0.4170011125208717   T   T   T
  0.1672482562840187  0.9162667003172302  0.4165637293126352   T   T   T
  0.6672409283278782  0.9162264868979548  0.4166021558887394   T   T   T
  0.4172114737537029  0.4161923374034870  0.4164226271544749   T   T   T
  0.9175556460270400  0.4161062100276496  0.4162878831378762   T   T   T
  0.4172669801466213  0.9160724179593274  0.4166149235147856   T   T   T
  0.9172262713295751  0.9162648986694464  0.4165753684997995   T   T   T
  0.1674742757885781  0.1660350927520895  0.4790432669068849   T   T   T
  0.6675007530336714  0.1660859195809508  0.4789733900137776   T   T   T
  0.1674499859978766  0.6660688290662335  0.4791285776170042   T   T   T
  0.6671705770434073  0.6663014101084741  0.4789723895042712   T   T   T
  0.4173523847468559  0.1659994960715636  0.4787322821901228   T   T   T
  0.9173648093219526  0.1661323086850643  0.4788836725077701   T   T   T
  0.4172779128608965  0.6657358865941347  0.4789394808261989   T   T   T
  0.9173069739613737  0.6661756751183887  0.4790587885465527   T   T   T
  0.1676375600384503  0.4161713479870528  0.4791561941340419   T   T   T
  0.6670240326055108  0.4163355128041957  0.4796024309423998   T   T   T
  0.1673155291332264  0.9161851145097231  0.4790478885764031   T   T   T
  0.6673241544144943  0.9161972336958186  0.4790931566334748   T   T   T
  0.4178740844738940  0.4164622069932591  0.4787747177440238   T   T   T
  0.9182323841727822  0.4158056819022207  0.4786395513433703   T   T   T
  0.4175639436629766  0.9157102335895360  0.4791205705302559   T   T   T
  0.9173193455751658  0.9162041570661046  0.4790570180477687   T   T   T
  0.0006443239800973  0.9996044121151684  0.4994767828154707   T   T   T
  0.5005803481080520  0.9995507310366349  0.4994575359886539   T   T   T
  0.0008430272107560  0.4994536707838364  0.4994698307963077   T   T   T
  0.5004440605358269  0.4998178512218558  0.5004062149786606   T   T   T
  0.2508203191348244  0.9993470288260369  0.4995135170047718   T   T   T
  0.7506685351629798  0.9995401750188435  0.4995425467442871   T   T   T
  0.2513953034182066  0.4992306673297904  0.4994803987053160   T   T   T
  0.7518645892193732  0.4993416754966020  0.4990070351336726   T   T   T
  0.0006902716258921  0.2494536317191205  0.4993837488876025   T   T   T
  0.5005911144565900  0.2494231650413425  0.4990421767569302   T   T   T
  0.0006869087764798  0.7494884494998502  0.4995148621095993   T   T   T
  0.5006358532543445  0.7489157837996316  0.4996001267805852   T   T   T
  0.2509628677214621  0.2493376724363046  0.4994426395843945   T   T   T
  0.7510472903571213  0.2490284620286616  0.4996239073546107   T   T   T
  0.2507486384051560  0.7495202332728610  0.4994977571536694   T   T   T
  0.7506100900247645  0.7494450792549685  0.4995096032916280   T   T   T
 
  0.00000000E+00  0.00000000E+00  0.00000000E+00
  0.00000000E+00  0.00000000E+00  0.00000000E+00
  0.00000000E+00  0.00000000E+00  0.00000000E+00
  0.00000000E+00  0.00000000E+00  0.00000000E+00
  0.00000000E+00  0.00000000E+00  0.00000000E+00
  0.00000000E+00  0.00000000E+00  0.00000000E+00
  0.00000000E+00  0.00000000E+00  0.00000000E+00
  0.00000000E+00  0.00000000E+00  0.00000000E+00
  0.00000000E+00  0.00000000E+00  0.00000000E+00
  0.00000000E+00  0.00000000E+00  0.00000000E+00
  0.00000000E+00  0.00000000E+00  0.00000000E+00
  0.00000000E+00  0.00000000E+00  0.00000000E+00
  0.00000000E+00  0.00000000E+00  0.00000000E+00
  0.00000000E+00  0.00000000E+00  0.00000000E+00
  0.00000000E+00  0.00000000E+00  0.00000000E+00
  0.00000000E+00  0.00000000E+00  0.00000000E+00
  0.00000000E+00  0.00000000E+00  0.00000000E+00
  0.00000000E+00  0.00000000E+00  0.00000000E+00
  0.00000000E+00  0.00000000E+00  0.00000000E+00
  0.00000000E+00  0.00000000E+00  0.00000000E+00
  0.00000000E+00  0.00000000E+00  0.00000000E+00
  0.00000000E+00  0.00000000E+00  0.00000000E+00
  0.00000000E+00  0.00000000E+00  0.00000000E+00
  0.00000000E+00  0.00000000E+00  0.00000000E+00
  0.00000000E+00  0.00000000E+00  0.00000000E+00
  0.00000000E+00  0.00000000E+00  0.00000000E+00
  0.00000000E+00  0.00000000E+00  0.00000000E+00
  0.00000000E+00  0.00000000E+00  0.00000000E+00
  0.00000000E+00  0.00000000E+00  0.00000000E+00
  0.00000000E+00  0.00000000E+00  0.00000000E+00
  0.00000000E+00  0.00000000E+00  0.00000000E+00
  0.00000000E+00  0.00000000E+00  0.00000000E+00
  0.00000000E+00  0.00000000E+00  0.00000000E+00
  0.00000000E+00  0.00000000E+00  0.00000000E+00
  0.00000000E+00  0.00000000E+00  0.00000000E+00
  0.00000000E+00  0.00000000E+00  0.00000000E+00
  0.00000000E+00  0.00000000E+00  0.00000000E+00
  0.00000000E+00  0.00000000E+00  0.00000000E+00
  0.00000000E+00  0.00000000E+00  0.00000000E+00
  0.00000000E+00  0.00000000E+00  0.00000000E+00
  0.00000000E+00  0.00000000E+00  0.00000000E+00
  0.00000000E+00  0.00000000E+00  0.00000000E+00
  0.00000000E+00  0.00000000E+00  0.00000000E+00
  0.00000000E+00  0.00000000E+00  0.00000000E+00
  0.00000000E+00  0.00000000E+00  0.00000000E+00
  0.00000000E+00  0.00000000E+00  0.00000000E+00
  0.00000000E+00  0.00000000E+00  0.00000000E+00
  0.00000000E+00  0.00000000E+00  0.00000000E+00
  0.00000000E+00  0.00000000E+00  0.00000000E+00
  0.00000000E+00  0.00000000E+00  0.00000000E+00
  0.00000000E+00  0.00000000E+00  0.00000000E+00
  0.00000000E+00  0.00000000E+00  0.00000000E+00
  0.00000000E+00  0.00000000E+00  0.00000000E+00
  0.00000000E+00  0.00000000E+00  0.00000000E+00
  0.00000000E+00  0.00000000E+00  0.00000000E+00
  0.00000000E+00  0.00000000E+00  0.00000000E+00
  0.00000000E+00  0.00000000E+00  0.00000000E+00
  0.00000000E+00  0.00000000E+00  0.00000000E+00
  0.00000000E+00  0.00000000E+00  0.00000000E+00
  0.00000000E+00  0.00000000E+00  0.00000000E+00
  0.00000000E+00  0.00000000E+00  0.00000000E+00
  0.00000000E+00  0.00000000E+00  0.00000000E+00
  0.00000000E+00  0.00000000E+00  0.00000000E+00
  0.00000000E+00  0.00000000E+00  0.00000000E+00
  0.00000000E+00  0.00000000E+00  0.00000000E+00
  0.00000000E+00  0.00000000E+00  0.00000000E+00
  0.00000000E+00  0.00000000E+00  0.00000000E+00
  0.00000000E+00  0.00000000E+00  0.00000000E+00
  0.00000000E+00  0.00000000E+00  0.00000000E+00
  0.00000000E+00  0.00000000E+00  0.00000000E+00
  0.00000000E+00  0.00000000E+00  0.00000000E+00
  0.00000000E+00  0.00000000E+00  0.00000000E+00
  0.00000000E+00  0.00000000E+00  0.00000000E+00
  0.00000000E+00  0.00000000E+00  0.00000000E+00
  0.00000000E+00  0.00000000E+00  0.00000000E+00
  0.00000000E+00  0.00000000E+00  0.00000000E+00
  0.00000000E+00  0.00000000E+00  0.00000000E+00
  0.00000000E+00  0.00000000E+00  0.00000000E+00
  0.00000000E+00  0.00000000E+00  0.00000000E+00
  0.00000000E+00  0.00000000E+00  0.00000000E+00
  0.00000000E+00  0.00000000E+00  0.00000000E+00
  0.00000000E+00  0.00000000E+00  0.00000000E+00
  0.00000000E+00  0.00000000E+00  0.00000000E+00
  0.00000000E+00  0.00000000E+00  0.00000000E+00
  0.00000000E+00  0.00000000E+00  0.00000000E+00
  0.00000000E+00  0.00000000E+00  0.00000000E+00
  0.00000000E+00  0.00000000E+00  0.00000000E+00
  0.00000000E+00  0.00000000E+00  0.00000000E+00
  0.00000000E+00  0.00000000E+00  0.00000000E+00
  0.00000000E+00  0.00000000E+00  0.00000000E+00
  0.00000000E+00  0.00000000E+00  0.00000000E+00
  0.00000000E+00  0.00000000E+00  0.00000000E+00
  0.00000000E+00  0.00000000E+00  0.00000000E+00
  0.00000000E+00  0.00000000E+00  0.00000000E+00
  0.00000000E+00  0.00000000E+00  0.00000000E+00
  0.00000000E+00  0.00000000E+00  0.00000000E+00
  0.00000000E+00  0.00000000E+00  0.00000000E+00
  0.00000000E+00  0.00000000E+00  0.00000000E+00
  0.00000000E+00  0.00000000E+00  0.00000000E+00
  0.00000000E+00  0.00000000E+00  0.00000000E+00
  0.00000000E+00  0.00000000E+00  0.00000000E+00
  0.00000000E+00  0.00000000E+00  0.00000000E+00
  0.00000000E+00  0.00000000E+00  0.00000000E+00
  0.00000000E+00  0.00000000E+00  0.00000000E+00
  0.00000000E+00  0.00000000E+00  0.00000000E+00
  0.00000000E+00  0.00000000E+00  0.00000000E+00
  0.00000000E+00  0.00000000E+00  0.00000000E+00
  0.00000000E+00  0.00000000E+00  0.00000000E+00
  0.00000000E+00  0.00000000E+00  0.00000000E+00
  0.00000000E+00  0.00000000E+00  0.00000000E+00
  0.00000000E+00  0.00000000E+00  0.00000000E+00
  0.00000000E+00  0.00000000E+00  0.00000000E+00
  0.00000000E+00  0.00000000E+00  0.00000000E+00
  0.00000000E+00  0.00000000E+00  0.00000000E+00
  0.00000000E+00  0.00000000E+00  0.00000000E+00
  0.00000000E+00  0.00000000E+00  0.00000000E+00
  0.00000000E+00  0.00000000E+00  0.00000000E+00
  0.00000000E+00  0.00000000E+00  0.00000000E+00
  0.00000000E+00  0.00000000E+00  0.00000000E+00
  0.00000000E+00  0.00000000E+00  0.00000000E+00
  0.00000000E+00  0.00000000E+00  0.00000000E+00
  0.00000000E+00  0.00000000E+00  0.00000000E+00
  0.00000000E+00  0.00000000E+00  0.00000000E+00
  0.00000000E+00  0.00000000E+00  0.00000000E+00
  0.00000000E+00  0.00000000E+00  0.00000000E+00
  0.00000000E+00  0.00000000E+00  0.00000000E+00
  0.00000000E+00  0.00000000E+00  0.00000000E+00
  0.00000000E+00  0.00000000E+00  0.00000000E+00
  0.00000000E+00  0.00000000E+00  0.00000000E+00
  0.00000000E+00  0.00000000E+00  0.00000000E+00
  0.00000000E+00  0.00000000E+00  0.00000000E+00
  0.00000000E+00  0.00000000E+00  0.00000000E+00
  0.00000000E+00  0.00000000E+00  0.00000000E+00
  0.00000000E+00  0.00000000E+00  0.00000000E+00
  0.00000000E+00  0.00000000E+00  0.00000000E+00
  0.00000000E+00  0.00000000E+00  0.00000000E+00
  0.00000000E+00  0.00000000E+00  0.00000000E+00
  0.00000000E+00  0.00000000E+00  0.00000000E+00
  0.00000000E+00  0.00000000E+00  0.00000000E+00
  0.00000000E+00  0.00000000E+00  0.00000000E+00
  0.00000000E+00  0.00000000E+00  0.00000000E+00
  0.00000000E+00  0.00000000E+00  0.00000000E+00
  0.00000000E+00  0.00000000E+00  0.00000000E+00
  0.00000000E+00  0.00000000E+00  0.00000000E+00
  0.00000000E+00  0.00000000E+00  0.00000000E+00
  0.00000000E+00  0.00000000E+00  0.00000000E+00
  0.00000000E+00  0.00000000E+00  0.00000000E+00
  0.00000000E+00  0.00000000E+00  0.00000000E+00
  0.00000000E+00  0.00000000E+00  0.00000000E+00
  0.00000000E+00  0.00000000E+00  0.00000000E+00
  0.00000000E+00  0.00000000E+00  0.00000000E+00
  0.00000000E+00  0.00000000E+00  0.00000000E+00
  0.00000000E+00  0.00000000E+00  0.00000000E+00
  0.00000000E+00  0.00000000E+00  0.00000000E+00
  0.00000000E+00  0.00000000E+00  0.00000000E+00
  0.00000000E+00  0.00000000E+00  0.00000000E+00
  0.00000000E+00  0.00000000E+00  0.00000000E+00
  0.00000000E+00  0.00000000E+00  0.00000000E+00
  0.00000000E+00  0.00000000E+00  0.00000000E+00
  0.00000000E+00  0.00000000E+00  0.00000000E+00
  0.00000000E+00  0.00000000E+00  0.00000000E+00
  0.00000000E+00  0.00000000E+00  0.00000000E+00
  0.00000000E+00  0.00000000E+00  0.00000000E+00
  0.00000000E+00  0.00000000E+00  0.00000000E+00
  0.00000000E+00  0.00000000E+00  0.00000000E+00
  0.00000000E+00  0.00000000E+00  0.00000000E+00
  0.00000000E+00  0.00000000E+00  0.00000000E+00
  0.00000000E+00  0.00000000E+00  0.00000000E+00
  0.00000000E+00  0.00000000E+00  0.00000000E+00
  0.00000000E+00  0.00000000E+00  0.00000000E+00
  0.00000000E+00  0.00000000E+00  0.00000000E+00
  0.00000000E+00  0.00000000E+00  0.00000000E+00
  0.00000000E+00  0.00000000E+00  0.00000000E+00
  0.00000000E+00  0.00000000E+00  0.00000000E+00
  0.00000000E+00  0.00000000E+00  0.00000000E+00
  0.00000000E+00  0.00000000E+00  0.00000000E+00
  0.00000000E+00  0.00000000E+00  0.00000000E+00
  0.00000000E+00  0.00000000E+00  0.00000000E+00
  0.00000000E+00  0.00000000E+00  0.00000000E+00
  0.00000000E+00  0.00000000E+00  0.00000000E+00
  0.00000000E+00  0.00000000E+00  0.00000000E+00
  0.00000000E+00  0.00000000E+00  0.00000000E+00
  0.00000000E+00  0.00000000E+00  0.00000000E+00
  0.00000000E+00  0.00000000E+00  0.00000000E+00
  0.00000000E+00  0.00000000E+00  0.00000000E+00
  0.00000000E+00  0.00000000E+00  0.00000000E+00
  0.00000000E+00  0.00000000E+00  0.00000000E+00
  0.00000000E+00  0.00000000E+00  0.00000000E+00
  0.00000000E+00  0.00000000E+00  0.00000000E+00
  0.00000000E+00  0.00000000E+00  0.00000000E+00
  0.00000000E+00  0.00000000E+00  0.00000000E+00
  0.00000000E+00  0.00000000E+00  0.00000000E+00
  0.00000000E+00  0.00000000E+00  0.00000000E+00
  0.00000000E+00  0.00000000E+00  0.00000000E+00
  0.00000000E+00  0.00000000E+00  0.00000000E+00
  0.00000000E+00  0.00000000E+00  0.00000000E+00
  0.00000000E+00  0.00000000E+00  0.00000000E+00
  0.00000000E+00  0.00000000E+00  0.00000000E+00
  0.00000000E+00  0.00000000E+00  0.00000000E+00
  0.00000000E+00  0.00000000E+00  0.00000000E+00
  0.00000000E+00  0.00000000E+00  0.00000000E+00
  0.00000000E+00  0.00000000E+00  0.00000000E+00
  0.00000000E+00  0.00000000E+00  0.00000000E+00
  0.00000000E+00  0.00000000E+00  0.00000000E+00
  0.00000000E+00  0.00000000E+00  0.00000000E+00
  0.00000000E+00  0.00000000E+00  0.00000000E+00
  0.00000000E+00  0.00000000E+00  0.00000000E+00
  0.00000000E+00  0.00000000E+00  0.00000000E+00
  0.00000000E+00  0.00000000E+00  0.00000000E+00
  0.00000000E+00  0.00000000E+00  0.00000000E+00
  0.00000000E+00  0.00000000E+00  0.00000000E+00
  0.00000000E+00  0.00000000E+00  0.00000000E+00
  0.00000000E+00  0.00000000E+00  0.00000000E+00
  0.00000000E+00  0.00000000E+00  0.00000000E+00
  0.00000000E+00  0.00000000E+00  0.00000000E+00
  0.00000000E+00  0.00000000E+00  0.00000000E+00
  0.00000000E+00  0.00000000E+00  0.00000000E+00
  0.00000000E+00  0.00000000E+00  0.00000000E+00
  0.00000000E+00  0.00000000E+00  0.00000000E+00
  0.00000000E+00  0.00000000E+00  0.00000000E+00
  0.00000000E+00  0.00000000E+00  0.00000000E+00
  0.00000000E+00  0.00000000E+00  0.00000000E+00
  0.00000000E+00  0.00000000E+00  0.00000000E+00
  0.00000000E+00  0.00000000E+00  0.00000000E+00
  0.00000000E+00  0.00000000E+00  0.00000000E+00
  0.00000000E+00  0.00000000E+00  0.00000000E+00
  0.00000000E+00  0.00000000E+00  0.00000000E+00
  0.00000000E+00  0.00000000E+00  0.00000000E+00
  0.00000000E+00  0.00000000E+00  0.00000000E+00
  0.00000000E+00  0.00000000E+00  0.00000000E+00
  0.00000000E+00  0.00000000E+00  0.00000000E+00
  0.00000000E+00  0.00000000E+00  0.00000000E+00
  0.00000000E+00  0.00000000E+00  0.00000000E+00