4x4_si_surface_from540eV_1x1x1conv      
   1.00000000000000     
    15.3329877853000003    0.0000000000000000    0.0000000000000000
     7.6664938927000001   13.2787569380000008    0.0000000000000000
     0.0000000000000000    0.0000000000000000   41.5579948425000012
   C    H    C    H    Si
    14     9     2    37   193
Selective dynamics
Direct
  0.3911692280815018  0.2390600470886852  0.5620540883519780   T   T   T
  0.3491379374546284  0.3225280419732854  0.5407288027952504   T   T   T
  0.4876578701554450  0.2018878421565233  0.5731059776415819   T   T   T
  0.5464491009256776  0.2462798541209708  0.5638473672892843   T   T   T
  0.5031629674882225  0.3336050777756725  0.5429630845346978   T   T   T
  0.4034274979563932  0.3674827523536734  0.5316667414875411   T   T   T
  0.6458375556659917  0.2058921201383299  0.5742931923168868   T   T   T
  0.7058245378397956  0.2453221235765213  0.5639885173272958   T   T   T
  0.6628908850533577  0.3327244289313782  0.5431226040840613   T   T   T
  0.5600061060876840  0.3797342271987887  0.5337765536233903   T   T   T
  0.8089744619274484  0.1998819971787711  0.5734012986510137   T   T   T
  0.8692457936584859  0.2361500121584683  0.5625387802445658   T   T   T
  0.8288703141723630  0.3197204975022814  0.5412587571307768   T   T   T
  0.7297106292794453  0.3656690570497787  0.5320311862472664   T   T   T
  0.3472566959054930  0.2040880296349030  0.5691686285706368   T   T   T
  0.2737002414699106  0.3502955043410552  0.5310006677463051   T   T   T
  0.5219993525227409  0.1366009627575551  0.5890728153187226   T   T   T
  0.3704155385362924  0.4288195673226767  0.5143963415889417   T   T   T
  0.6780030610201351  0.1407526464712134  0.5903708208837415   T   T   T
  0.8390626366460339  0.1345339252317217  0.5893230989388982   T   T   T
  0.9480704067508086  0.2003982099170898  0.5697781433227647   T   T   T
  0.8773568678617991  0.3467276287646968  0.5316866289851063   T   T   T
  0.7022534735105097  0.4270358552284748  0.5147957520204542   T   T   T
  0.3605303636284631  0.5876303065653090  0.5283186105234918   T   T   T
  0.5534615199751940  0.5868300684742707  0.5282715209172650   T   T   T
  0.3552182787036031  0.5658810170359843  0.5531484633211861   T   T   T
  0.3038800699189821  0.5819369107505210  0.5138553499814122   T   T   T
  0.3409778119316798  0.6669726679878778  0.5283218706899433   T   T   T
  0.5803640749788386  0.5650907259476838  0.5531161851481698   T   T   T
  0.4941101087030120  0.6663448863965016  0.5282275459709211   T   T   T
  0.6160620639322829  0.5805300679271639  0.5138085874253164   T   T   T
  0.0003583257618587  0.9998536668191349  0.0206314515501305   T   T   T
  0.5001545953960118  0.9998863726969773  0.0206306166890897   T   T   T
  0.0003190377592972  0.4997851766287909  0.0206110696016211   T   T   T
  0.5003037178488654  0.4997719423529006  0.0206198912281650   T   T   T
  0.2502563574717911  0.9999378830376600  0.0206391710899396   T   T   T
  0.7503298550036277  0.9997634201602779  0.0206184919709358   T   T   T
  0.2503352607134062  0.4997678006275450  0.0206178402533368   T   T   T
  0.7503170366770249  0.4997169017102863  0.0206203104110685   T   T   T
  0.0002779175365433  0.2497465743017671  0.0206310366102471   T   T   T
  0.5002848861160984  0.2498476532944949  0.0206189260089147   T   T   T
  0.0002688964510185  0.7498230368639440  0.0206106548924936   T   T   T
  0.5003278029186546  0.7497755509463175  0.0206036053876346   T   T   T
  0.2503697756823371  0.2496990170006441  0.0206324661059369   T   T   T
  0.7502890372445776  0.2498723021104325  0.0206271964637565   T   T   T
  0.2502847209129655  0.7497750597184165  0.0206102211888748   T   T   T
  0.7503311199453364  0.7498281786707892  0.0206065563451929   T   T   T
  0.0011139993373845  0.0001768381855456  0.4873692391723452   T   T   T
  0.4991711760160058  0.0000673907186624  0.4873823702471043   T   T   T
  0.0008891865804728  0.4985768295095312  0.4873442667254650   T   T   T
  0.2506767690266045  0.9992227011121244  0.4871760690492337   T   T   T
  0.7491301046892502  0.0024786425564045  0.4873618944008413   T   T   T
  0.2397694437044393  0.5035977986555764  0.4869628509709258   T   T   T
  0.7574152555682545  0.5030565588824203  0.4869824592707133   T   T   T
  0.0007563607415833  0.2497118414645740  0.4872275511008439   T   T   T
  0.5079147171155540  0.2391974433815633  0.4870239103245950   T   T   T
  0.0006811412705616  0.7496866407298910  0.4874976384211323   T   T   T
  0.4996778211607094  0.7567753896202660  0.4869701743783210   T   T   T
  0.2500454570053634  0.2495148551229676  0.4872438294842496   T   T   T
  0.7536509481265554  0.2390581960182985  0.4870154511183884   T   T   T
  0.2444065575084622  0.7568451630262274  0.4869757913116999   T   T   T
  0.7500728631888052  0.7494583681875682  0.4875219585934829   T   T   T
  0.0003134798929807  0.9998161672255463  0.0568318139350694   T   T   T
  0.5002678323360499  0.9998226379533577  0.0568309518111292   T   T   T
  0.0003030616589399  0.4998006489092788  0.0568115914606366   T   T   T
  0.5002975303645130  0.4997990943947954  0.0568205896768745   T   T   T
  0.2502917584348836  0.9998313477888203  0.0568394773151297   T   T   T
  0.7503098568969619  0.9997939126367967  0.0568189988251433   T   T   T
  0.2503074508695278  0.4997948180123046  0.0568182665038819   T   T   T
  0.7503029685847693  0.4997854403313653  0.0568208402149466   T   T   T
  0.0002955617923277  0.2497888078939496  0.0568312646402021   T   T   T
  0.5003005733851893  0.2498108290492809  0.0568192712178188   T   T   T
  0.0002955991042697  0.7498057387147554  0.0568109152302796   T   T   T
  0.5003099006369354  0.7497903024325581  0.0568038594711311   T   T   T
  0.2503159622792950  0.2497781184051391  0.0568327828094795   T   T   T
  0.7502956466420514  0.2498173309850102  0.0568275427428517   T   T   T
  0.2503005276131063  0.7497907764103360  0.0568105276164701   T   T   T
  0.7503091200624397  0.7498071733362650  0.0568068305507410   T   T   T
  0.8336407125012641  0.8331286852850326  0.0752949802927247   T   T   T
  0.3336426328772006  0.8331250193904722  0.0752777069909669   T   T   T
  0.8336354057254809  0.3331358997807286  0.0753088546733096   T   T   T
  0.3336377986446806  0.3331337509426859  0.0752973012750644   T   T   T
  0.0836382770030468  0.8331281435376710  0.0752882143064468   T   T   T
  0.5836406411452657  0.8331264856464529  0.0752789961247942   T   T   T
  0.0836316014921223  0.3331366396541355  0.0752921934282540   T   T   T
  0.5836281053889678  0.3331421470199416  0.0753027297920852   T   T   T
  0.8336320810227562  0.0831427952249868  0.0752986841775041   T   T   T
  0.3336269255878079  0.0831425188885859  0.0753379618762935   T   T   T
  0.8336317130862483  0.5831383342499663  0.0752859475706487   T   T   T
  0.3336345012159967  0.5831326681513715  0.0753001945542735   T   T   T
  0.0836368565436416  0.0831445899858281  0.0753281732983737   T   T   T
  0.5836367171219052  0.0831409502766718  0.0752919580083997   T   T   T
  0.0836353164167818  0.5831367318226484  0.0752883037442587   T   T   T
  0.5836313703027329  0.5831349393882093  0.0752949076562359   T   T   T
  0.8336396721497366  0.8331316979291614  0.1317388851486783   T   T   T
  0.3336505054836678  0.8331145480456215  0.1317218192518865   T   T   T
  0.8336339296067763  0.3331453517111314  0.1317514378331097   T   T   T
  0.3336316363417140  0.3331430095711028  0.1317417272531500   T   T   T
  0.0836372808506809  0.8331231529269232  0.1317323995252337   T   T   T
  0.5836535686605728  0.8331200322727952  0.1317228220618958   T   T   T
  0.0836148969398920  0.3331718756385840  0.1317395079754746   T   T   T
  0.5836263444663317  0.3331431225914727  0.1317484615654152   T   T   T
  0.8336291888152445  0.0831379338796552  0.1317485114540702   T   T   T
  0.3336464193385993  0.0831307610430585  0.1317883886655480   T   T   T
  0.8336320910005099  0.5831477705783854  0.1317352350748635   T   T   T
  0.3336324294257338  0.5831386974206936  0.1317500203001316   T   T   T
  0.0836288988642551  0.0831318638451748  0.1317773841612890   T   T   T
  0.5836465243957676  0.0831374688116853  0.1317387817967770   T   T   T
  0.0836298731039946  0.5831415774114177  0.1317357453431214   T   T   T
  0.5836268000962974  0.5831429627076901  0.1317438303222858   T   T   T
  0.6669694745196324  0.6664727231046612  0.1506303568508187   T   T   T
  0.1669588005230480  0.6664688522955160  0.1506355182002181   T   T   T
  0.6669593591129086  0.1664797070509962  0.1506417072769466   T   T   T
  0.1669280276037952  0.1665327422282701  0.1506541933783652   T   T   T
  0.9169736123993673  0.6664669515249315  0.1506358748213827   T   T   T
  0.4169619848704542  0.6664828312822237  0.1506405354634310   T   T   T
  0.9169377184583425  0.1664909753538595  0.1506525074514187   T   T   T
  0.4169982624417017  0.1664945697614186  0.1506463583791202   T   T   T
  0.6669666178672813  0.9164614909791169  0.1506237235025552   T   T   T
  0.1670089103389572  0.9164089328469913  0.1506286401986756   T   T   T
  0.6669670986439229  0.4164740265534661  0.1506357201138044   T   T   T
  0.1669662296850234  0.4164819836778051  0.1506335596702115   T   T   T
  0.9169810842984347  0.9164541648047475  0.1506322793898676   T   T   T
  0.4170142942255950  0.9163934894875894  0.1506300718054661   T   T   T
  0.9169595625836422  0.4164921388931546  0.1506382570130071   T   T   T
  0.4169609740090507  0.4164654101688186  0.1506413743940698   T   T   T
  0.6669127706056912  0.6665021463472200  0.2070540225198769   F   F   F
  0.1669138316313195  0.6664900970265819  0.2070590756991990   F   F   F
  0.6669035723175156  0.1665057964629781  0.2070660538992044   F   F   F
  0.1668408771840220  0.1666082156883917  0.2070816946923273   F   F   F
  0.9169252874870111  0.6664983809345202  0.2070590756991990   F   F   F
  0.4169248964164609  0.6664788007884823  0.2070653320164482   F   F   F
  0.9169248432981192  0.1665027841328168  0.2070747164923219   F   F   F
  0.4169644500674039  0.1665140803709164  0.2070674976647240   F   F   F
  0.6669177400176807  0.9164826238496531  0.2070424723957274   F   F   F
  0.1669495152207645  0.9164404512274231  0.2070463224371082   F   F   F
  0.6669161662049774  0.4164892862955725  0.2070545037750549   F   F   F
  0.1669205890675940  0.4164757308098572  0.2070557069129819   F   F   F
  0.9169485992834439  0.9164630437036152  0.2070523381267719   F   F   F
  0.4170101806186111  0.9164043032655158  0.2070482474577986   F   F   F
  0.9169387145283565  0.4164915455431952  0.2070607600923040   F   F   F
  0.4169202098956717  0.4164794962225571  0.2070634069957507   F   F   F
  0.5002798030543261  0.4997937706810376  0.2258807248900325   F   F   F
  0.0002868940431497  0.4998231409000908  0.2258812061452034   F   F   F
  0.5002863385191674  0.9998006637208334  0.2258552183658580   F   F   F
  0.0003208701956581  0.9997660219240032  0.2258609934279363   F   F   F
  0.7502816488517183  0.4998178693223068  0.2258542558555092   F   F   F
  0.2502547936954755  0.4997990422588146  0.2258679716279417   F   F   F
  0.7502884546610247  0.9997720465843187  0.2258436682417013   F   F   F
  0.2503219556666494  0.9998112068763874  0.2257789394209269   F   F   F
  0.5003186269023061  0.7497313224787021  0.2259136908693833   F   F   F
  0.0002840642262640  0.7497983468247469  0.2258920343865967   F   F   F
  0.5002940353061192  0.2498479349754348  0.2259329410763087   F   F   F
  0.0001670708790869  0.2498923668452804  0.2259490631246024   F   F   F
  0.7502689748929185  0.7498231985485546  0.2258665278624221   F   F   F
  0.2502866307688763  0.7497727420183935  0.2258932375245308   F   F   F
  0.7502544582019368  0.2498283548293969  0.2258879437176233   F   F   F
  0.2503486542705033  0.2498230832516199  0.2258978094486750   F   F   F
  0.5004932546092391  0.4996303517699019  0.2823062095383406   F   F   F
  0.0005074583600262  0.4996898452905469  0.2823086158142019   F   F   F
  0.5005132644564512  0.9996259485716052  0.2822696341451874   F   F   F
  0.0005904244587924  0.9995634427207989  0.2822778154831269   F   F   F
  0.7504622206316327  0.4997071661889620  0.2822669872417336   F   F   F
  0.2504447592165420  0.4996552034937167  0.2822855155658957   F   F   F
  0.7505111990631619  0.9995769982065141  0.2822511058210253   F   F   F
  0.2506020458414824  0.9996071215081059  0.2821526891381296   F   F   F
  0.5005670697608693  0.7495031384691515  0.2823555381935776   F   F   F
  0.0005008505837054  0.7496386933263111  0.2823235347245685   F   F   F
  0.5005387701827573  0.2497432565024056  0.2823824884832717   F   F   F
  0.0002253319410030  0.2498501942230504  0.2824029418281242   F   F   F
  0.7504619455002910  0.7496929152691720  0.2822869593314152   F   F   F
  0.2505180283763622  0.7495799528882046  0.2823244972349173   F   F   F
  0.7504109530721479  0.2497071085404912  0.2823165565245560   F   F   F
  0.2506635300791658  0.2497033431277913  0.2823285879038835   F   F   F
  0.3339113537344005  0.3331381107926390  0.3012289223155165   F   F   F
  0.8334050589291593  0.3332540855037678  0.3012380661638048   F   F   F
  0.3338059435215115  0.8330636709181434  0.3010592798670118   F   F   F
  0.8338401711784442  0.8329529677847916  0.3011336337912454   F   F   F
  0.5838723081343105  0.3331057282434315  0.3012407130672514   F   F   F
  0.0839862484965863  0.3329566179005568  0.3010871926670475   F   F   F
  0.5838289243960375  0.8329815849213063  0.3011199180188200   F   F   F
  0.0838857188324837  0.8329115482451073  0.3011569746671441   F   F   F
  0.3338456386836413  0.5828399477553603  0.3011297837498645   F   F   F
  0.8338185258127879  0.5830267122252195  0.3010968177705067   F   F   F
  0.3338450989036943  0.0828993259790636  0.3010460453497501   F   F   F
  0.8338821008836348  0.0828835112457256  0.3010227044738585   F   F   F
  0.5839839903266224  0.5827345161997854  0.3011858499775286   F   F   F
  0.0838624466172320  0.5829755026125198  0.3011699685568132   F   F   F
  0.5839005052704920  0.0829076098870019  0.3010831019980742   F   F   F
  0.0840685265804382  0.0828955605663637  0.3009803540186269   F   F   F
  0.3344252264120371  0.3336771905047442  0.3578205389389950   T   T   T
  0.8324232167406151  0.3336844479388077  0.3578214598844767   T   T   T
  0.3341776497973186  0.8322224122330724  0.3575941361895900   T   T   T
  0.8337091390075528  0.8331463462994506  0.3575580606643740   T   T   T
  0.5833241313219446  0.3339229674554147  0.3578591186380038   T   T   T
  0.0838611232128983  0.3329185144225661  0.3573472147759063   T   T   T
  0.5837930624910612  0.8331568200887958  0.3574733598047928   T   T   T
  0.0836407104306858  0.8331978351906244  0.3574930075264646   T   T   T
  0.3343401514847173  0.5826147599525129  0.3577698790013457   T   T   T
  0.8336703511517314  0.5831974410242324  0.3574902939851867   T   T   T
  0.3335418339396412  0.0833498812342555  0.3573131735070518   T   T   T
  0.8340833907096865  0.0829168327209118  0.3573287582353970   T   T   T
  0.5836603566259413  0.5825504684664935  0.3578069606709420   T   T   T
  0.0837298006295129  0.5831976257461946  0.3575526917746785   T   T   T
  0.5835996432228541  0.0828762167342916  0.3573794000464261   T   T   T
  0.0837292261884102  0.0833539929687532  0.3572593239406743   T   T   T
  0.1670787939440075  0.1664099917179911  0.3762382645368447   T   T   T
  0.6671701964341210  0.1662652712891415  0.3757181237519163   T   T   T
  0.1672482529876334  0.6665394341612583  0.3762919322057954   T   T   T
  0.6668679395999035  0.6664745513048445  0.3762799612728855   T   T   T
  0.4168837286626044  0.1665005273402898  0.3762110758957675   T   T   T
  0.9172385659497593  0.1664703909539753  0.3761717609618955   T   T   T
  0.4174260725356618  0.6657349520740752  0.3772197856606354   T   T   T
  0.9170384249171306  0.6664584582001325  0.3764350158923264   T   T   T
  0.1671472521070001  0.4162132083774210  0.3761094639072979   T   T   T
  0.6662395559034664  0.4168232607486502  0.3778097206243416   T   T   T
  0.1670242830954223  0.9168099789240500  0.3759931575244622   T   T   T
  0.6670670292252865  0.9164326131041491  0.3764710830632438   T   T   T
  0.4174518969209942  0.4168792181117951  0.3777836787928308   T   T   T
  0.9172120104095427  0.4162253778276650  0.3760625434407103   T   T   T
  0.4168073139459523  0.9167452426936151  0.3759899389298482   T   T   T
  0.9170405346624406  0.9164887653823044  0.3764364442580472   T   T   T
  0.1669941547708191  0.1665368380832319  0.4326529820423914   T   T   T
  0.6672861977093376  0.1659440150280744  0.4318074444808104   T   T   T
  0.1668205436450023  0.6670727621341968  0.4326655003824129   T   T   T
  0.6667595093467114  0.6669130229216762  0.4326579161478392   T   T   T
  0.4172210095116000  0.1664149285214620  0.4325592806171557   T   T   T
  0.9169306584856045  0.1663937181270114  0.4325207735589629   T   T   T
  0.4181690167921488  0.6642777950458623  0.4340271149331940   T   T   T
  0.9169968315392296  0.6665201365683302  0.4328956348400013   T   T   T
  0.1667775418986750  0.4160524598120219  0.4324091018735174   T   T   T
  0.6650135105006996  0.4169827672846296  0.4348268167087568   T   T   T
  0.1666343590335089  0.9172321573940465  0.4322531744103131   T   T   T
  0.6670036469286202  0.9166004664072744  0.4329413346833348   T   T   T
  0.4184415329679894  0.4170702520493137  0.4348143817114902   T   T   T
  0.9177025746158236  0.4160459254946645  0.4323637705870809   T   T   T
  0.4167148189050351  0.9172004190502037  0.4322497515437362   T   T   T
  0.9168791169981532  0.9166770511160749  0.4329018861249168   T   T   T
  0.0004808662002347  0.9999918035214819  0.4511681768985838   T   T   T
  0.5000602700090582  0.9999801654943141  0.4511821647199170   T   T   T
  0.0004539840162607  0.4995704328964479  0.4511233219372741   T   T   T
  0.5000759010183273  0.5003644786157651  0.4560766536595509   T   T   T
  0.2503884102058507  0.9997922491764797  0.4509605854883958   T   T   T
  0.7500340919944861  0.0004692178136523  0.4511721923881211   T   T   T
  0.2488052861372196  0.5002547969506352  0.4509058706027247   T   T   T
  0.7515358077518925  0.5000726201915882  0.4509164592360051   T   T   T
  0.0003016246227858  0.2496339294972927  0.4510320175166669   T   T   T
  0.5020891870348763  0.2477737263742625  0.4511381291844998   T   T   T
  0.0003567164728082  0.7499335762256436  0.4512888152440766   T   T   T
  0.4997626219551137  0.7512263883449037  0.4509128259179604   T   T   T
  0.2505912010739593  0.2496035681083626  0.4510519005174984   T   T   T
  0.7507365947710269  0.2476841758516173  0.4511303119815508   T   T   T
  0.2496450644702506  0.7512648367938013  0.4509163054109138   T   T   T
  0.7502519197408404  0.7498301953717359  0.4513133336687076   T   T   T
  0.4955174551661727  0.5096723972619586  0.5138868502767480   T   T   T
 
  0.00000000E+00  0.00000000E+00  0.00000000E+00
  0.00000000E+00  0.00000000E+00  0.00000000E+00
  0.00000000E+00  0.00000000E+00  0.00000000E+00
  0.00000000E+00  0.00000000E+00  0.00000000E+00
  0.00000000E+00  0.00000000E+00  0.00000000E+00
  0.00000000E+00  0.00000000E+00  0.00000000E+00
  0.00000000E+00  0.00000000E+00  0.00000000E+00
  0.00000000E+00  0.00000000E+00  0.00000000E+00
  0.00000000E+00  0.00000000E+00  0.00000000E+00
  0.00000000E+00  0.00000000E+00  0.00000000E+00
  0.00000000E+00  0.00000000E+00  0.00000000E+00
  0.00000000E+00  0.00000000E+00  0.00000000E+00
  0.00000000E+00  0.00000000E+00  0.00000000E+00
  0.00000000E+00  0.00000000E+00  0.00000000E+00
  0.00000000E+00  0.00000000E+00  0.00000000E+00
  0.00000000E+00  0.00000000E+00  0.00000000E+00
  0.00000000E+00  0.00000000E+00  0.00000000E+00
  0.00000000E+00  0.00000000E+00  0.00000000E+00
  0.00000000E+00  0.00000000E+00  0.00000000E+00
  0.00000000E+00  0.00000000E+00  0.00000000E+00
  0.00000000E+00  0.00000000E+00  0.00000000E+00
  0.00000000E+00  0.00000000E+00  0.00000000E+00
  0.00000000E+00  0.00000000E+00  0.00000000E+00
  0.00000000E+00  0.00000000E+00  0.00000000E+00
  0.00000000E+00  0.00000000E+00  0.00000000E+00
  0.00000000E+00  0.00000000E+00  0.00000000E+00
  0.00000000E+00  0.00000000E+00  0.00000000E+00
  0.00000000E+00  0.00000000E+00  0.00000000E+00
  0.00000000E+00  0.00000000E+00  0.00000000E+00
  0.00000000E+00  0.00000000E+00  0.00000000E+00
  0.00000000E+00  0.00000000E+00  0.00000000E+00
  0.00000000E+00  0.00000000E+00  0.00000000E+00
  0.00000000E+00  0.00000000E+00  0.00000000E+00
  0.00000000E+00  0.00000000E+00  0.00000000E+00
  0.00000000E+00  0.00000000E+00  0.00000000E+00
  0.00000000E+00  0.00000000E+00  0.00000000E+00
  0.00000000E+00  0.00000000E+00  0.00000000E+00
  0.00000000E+00  0.00000000E+00  0.00000000E+00
  0.00000000E+00  0.00000000E+00  0.00000000E+00
  0.00000000E+00  0.00000000E+00  0.00000000E+00
  0.00000000E+00  0.00000000E+00  0.00000000E+00
  0.00000000E+00  0.00000000E+00  0.00000000E+00
  0.00000000E+00  0.00000000E+00  0.00000000E+00
  0.00000000E+00  0.00000000E+00  0.00000000E+00
  0.00000000E+00  0.00000000E+00  0.00000000E+00
  0.00000000E+00  0.00000000E+00  0.00000000E+00
  0.00000000E+00  0.00000000E+00  0.00000000E+00
  0.00000000E+00  0.00000000E+00  0.00000000E+00
  0.00000000E+00  0.00000000E+00  0.00000000E+00
  0.00000000E+00  0.00000000E+00  0.00000000E+00
  0.00000000E+00  0.00000000E+00  0.00000000E+00
  0.00000000E+00  0.00000000E+00  0.00000000E+00
  0.00000000E+00  0.00000000E+00  0.00000000E+00
  0.00000000E+00  0.00000000E+00  0.00000000E+00
  0.00000000E+00  0.00000000E+00  0.00000000E+00
  0.00000000E+00  0.00000000E+00  0.00000000E+00
  0.00000000E+00  0.00000000E+00  0.00000000E+00
  0.00000000E+00  0.00000000E+00  0.00000000E+00
  0.00000000E+00  0.00000000E+00  0.00000000E+00
  0.00000000E+00  0.00000000E+00  0.00000000E+00
  0.00000000E+00  0.00000000E+00  0.00000000E+00
  0.00000000E+00  0.00000000E+00  0.00000000E+00
  0.00000000E+00  0.00000000E+00  0.00000000E+00
  0.00000000E+00  0.00000000E+00  0.00000000E+00
  0.00000000E+00  0.00000000E+00  0.00000000E+00
  0.00000000E+00  0.00000000E+00  0.00000000E+00
  0.00000000E+00  0.00000000E+00  0.00000000E+00
  0.00000000E+00  0.00000000E+00  0.00000000E+00
  0.00000000E+00  0.00000000E+00  0.00000000E+00
  0.00000000E+00  0.00000000E+00  0.00000000E+00
  0.00000000E+00  0.00000000E+00  0.00000000E+00
  0.00000000E+00  0.00000000E+00  0.00000000E+00
  0.00000000E+00  0.00000000E+00  0.00000000E+00
  0.00000000E+00  0.00000000E+00  0.00000000E+00
  0.00000000E+00  0.00000000E+00  0.00000000E+00
  0.00000000E+00  0.00000000E+00  0.00000000E+00
  0.00000000E+00  0.00000000E+00  0.00000000E+00
  0.00000000E+00  0.00000000E+00  0.00000000E+00
  0.00000000E+00  0.00000000E+00  0.00000000E+00
  0.00000000E+00  0.00000000E+00  0.00000000E+00
  0.00000000E+00  0.00000000E+00  0.00000000E+00
  0.00000000E+00  0.00000000E+00  0.00000000E+00
  0.00000000E+00  0.00000000E+00  0.00000000E+00
  0.00000000E+00  0.00000000E+00  0.00000000E+00
  0.00000000E+00  0.00000000E+00  0.00000000E+00
  0.00000000E+00  0.00000000E+00  0.00000000E+00
  0.00000000E+00  0.00000000E+00  0.00000000E+00
  0.00000000E+00  0.00000000E+00  0.00000000E+00
  0.00000000E+00  0.00000000E+00  0.00000000E+00
  0.00000000E+00  0.00000000E+00  0.00000000E+00
  0.00000000E+00  0.00000000E+00  0.00000000E+00
  0.00000000E+00  0.00000000E+00  0.00000000E+00
  0.00000000E+00  0.00000000E+00  0.00000000E+00
  0.00000000E+00  0.00000000E+00  0.00000000E+00
  0.00000000E+00  0.00000000E+00  0.00000000E+00
  0.00000000E+00  0.00000000E+00  0.00000000E+00
  0.00000000E+00  0.00000000E+00  0.00000000E+00
  0.00000000E+00  0.00000000E+00  0.00000000E+00
  0.00000000E+00  0.00000000E+00  0.00000000E+00
  0.00000000E+00  0.00000000E+00  0.00000000E+00
  0.00000000E+00  0.00000000E+00  0.00000000E+00
  0.00000000E+00  0.00000000E+00  0.00000000E+00
  0.00000000E+00  0.00000000E+00  0.00000000E+00
  0.00000000E+00  0.00000000E+00  0.00000000E+00
  0.00000000E+00  0.00000000E+00  0.00000000E+00
  0.00000000E+00  0.00000000E+00  0.00000000E+00
  0.00000000E+00  0.00000000E+00  0.00000000E+00
  0.00000000E+00  0.00000000E+00  0.00000000E+00
  0.00000000E+00  0.00000000E+00  0.00000000E+00
  0.00000000E+00  0.00000000E+00  0.00000000E+00
  0.00000000E+00  0.00000000E+00  0.00000000E+00
  0.00000000E+00  0.00000000E+00  0.00000000E+00
  0.00000000E+00  0.00000000E+00  0.00000000E+00
  0.00000000E+00  0.00000000E+00  0.00000000E+00
  0.00000000E+00  0.00000000E+00  0.00000000E+00
  0.00000000E+00  0.00000000E+00  0.00000000E+00
  0.00000000E+00  0.00000000E+00  0.00000000E+00
  0.00000000E+00  0.00000000E+00  0.00000000E+00
  0.00000000E+00  0.00000000E+00  0.00000000E+00
  0.00000000E+00  0.00000000E+00  0.00000000E+00
  0.00000000E+00  0.00000000E+00  0.00000000E+00
  0.00000000E+00  0.00000000E+00  0.00000000E+00
  0.00000000E+00  0.00000000E+00  0.00000000E+00
  0.00000000E+00  0.00000000E+00  0.00000000E+00
  0.00000000E+00  0.00000000E+00  0.00000000E+00
  0.00000000E+00  0.00000000E+00  0.00000000E+00
  0.00000000E+00  0.00000000E+00  0.00000000E+00
  0.00000000E+00  0.00000000E+00  0.00000000E+00
  0.00000000E+00  0.00000000E+00  0.00000000E+00
  0.00000000E+00  0.00000000E+00  0.00000000E+00
  0.00000000E+00  0.00000000E+00  0.00000000E+00
  0.00000000E+00  0.00000000E+00  0.00000000E+00
  0.00000000E+00  0.00000000E+00  0.00000000E+00
  0.00000000E+00  0.00000000E+00  0.00000000E+00
  0.00000000E+00  0.00000000E+00  0.00000000E+00
  0.00000000E+00  0.00000000E+00  0.00000000E+00
  0.00000000E+00  0.00000000E+00  0.00000000E+00
  0.00000000E+00  0.00000000E+00  0.00000000E+00
  0.00000000E+00  0.00000000E+00  0.00000000E+00
  0.00000000E+00  0.00000000E+00  0.00000000E+00
  0.00000000E+00  0.00000000E+00  0.00000000E+00
  0.00000000E+00  0.00000000E+00  0.00000000E+00
  0.00000000E+00  0.00000000E+00  0.00000000E+00
  0.00000000E+00  0.00000000E+00  0.00000000E+00
  0.00000000E+00  0.00000000E+00  0.00000000E+00
  0.00000000E+00  0.00000000E+00  0.00000000E+00
  0.00000000E+00  0.00000000E+00  0.00000000E+00
  0.00000000E+00  0.00000000E+00  0.00000000E+00
  0.00000000E+00  0.00000000E+00  0.00000000E+00
  0.00000000E+00  0.00000000E+00  0.00000000E+00
  0.00000000E+00  0.00000000E+00  0.00000000E+00
  0.00000000E+00  0.00000000E+00  0.00000000E+00
  0.00000000E+00  0.00000000E+00  0.00000000E+00
  0.00000000E+00  0.00000000E+00  0.00000000E+00
  0.00000000E+00  0.00000000E+00  0.00000000E+00
  0.00000000E+00  0.00000000E+00  0.00000000E+00
  0.00000000E+00  0.00000000E+00  0.00000000E+00
  0.00000000E+00  0.00000000E+00  0.00000000E+00
  0.00000000E+00  0.00000000E+00  0.00000000E+00
  0.00000000E+00  0.00000000E+00  0.00000000E+00
  0.00000000E+00  0.00000000E+00  0.00000000E+00
  0.00000000E+00  0.00000000E+00  0.00000000E+00
  0.00000000E+00  0.00000000E+00  0.00000000E+00
  0.00000000E+00  0.00000000E+00  0.00000000E+00
  0.00000000E+00  0.00000000E+00  0.00000000E+00
  0.00000000E+00  0.00000000E+00  0.00000000E+00
  0.00000000E+00  0.00000000E+00  0.00000000E+00
  0.00000000E+00  0.00000000E+00  0.00000000E+00
  0.00000000E+00  0.00000000E+00  0.00000000E+00
  0.00000000E+00  0.00000000E+00  0.00000000E+00
  0.00000000E+00  0.00000000E+00  0.00000000E+00
  0.00000000E+00  0.00000000E+00  0.00000000E+00
  0.00000000E+00  0.00000000E+00  0.00000000E+00
  0.00000000E+00  0.00000000E+00  0.00000000E+00
  0.00000000E+00  0.00000000E+00  0.00000000E+00
  0.00000000E+00  0.00000000E+00  0.00000000E+00
  0.00000000E+00  0.00000000E+00  0.00000000E+00
  0.00000000E+00  0.00000000E+00  0.00000000E+00
  0.00000000E+00  0.00000000E+00  0.00000000E+00
  0.00000000E+00  0.00000000E+00  0.00000000E+00
  0.00000000E+00  0.00000000E+00  0.00000000E+00
  0.00000000E+00  0.00000000E+00  0.00000000E+00
  0.00000000E+00  0.00000000E+00  0.00000000E+00
  0.00000000E+00  0.00000000E+00  0.00000000E+00
  0.00000000E+00  0.00000000E+00  0.00000000E+00
  0.00000000E+00  0.00000000E+00  0.00000000E+00
  0.00000000E+00  0.00000000E+00  0.00000000E+00
  0.00000000E+00  0.00000000E+00  0.00000000E+00
  0.00000000E+00  0.00000000E+00  0.00000000E+00
  0.00000000E+00  0.00000000E+00  0.00000000E+00
  0.00000000E+00  0.00000000E+00  0.00000000E+00
  0.00000000E+00  0.00000000E+00  0.00000000E+00
  0.00000000E+00  0.00000000E+00  0.00000000E+00
  0.00000000E+00  0.00000000E+00  0.00000000E+00
  0.00000000E+00  0.00000000E+00  0.00000000E+00
  0.00000000E+00  0.00000000E+00  0.00000000E+00
  0.00000000E+00  0.00000000E+00  0.00000000E+00
  0.00000000E+00  0.00000000E+00  0.00000000E+00
  0.00000000E+00  0.00000000E+00  0.00000000E+00
  0.00000000E+00  0.00000000E+00  0.00000000E+00
  0.00000000E+00  0.00000000E+00  0.00000000E+00
  0.00000000E+00  0.00000000E+00  0.00000000E+00
  0.00000000E+00  0.00000000E+00  0.00000000E+00
  0.00000000E+00  0.00000000E+00  0.00000000E+00
  0.00000000E+00  0.00000000E+00  0.00000000E+00
  0.00000000E+00  0.00000000E+00  0.00000000E+00
  0.00000000E+00  0.00000000E+00  0.00000000E+00
  0.00000000E+00  0.00000000E+00  0.00000000E+00
  0.00000000E+00  0.00000000E+00  0.00000000E+00
  0.00000000E+00  0.00000000E+00  0.00000000E+00
  0.00000000E+00  0.00000000E+00  0.00000000E+00
  0.00000000E+00  0.00000000E+00  0.00000000E+00
  0.00000000E+00  0.00000000E+00  0.00000000E+00
  0.00000000E+00  0.00000000E+00  0.00000000E+00
  0.00000000E+00  0.00000000E+00  0.00000000E+00
  0.00000000E+00  0.00000000E+00  0.00000000E+00
  0.00000000E+00  0.00000000E+00  0.00000000E+00
  0.00000000E+00  0.00000000E+00  0.00000000E+00
  0.00000000E+00  0.00000000E+00  0.00000000E+00
  0.00000000E+00  0.00000000E+00  0.00000000E+00
  0.00000000E+00  0.00000000E+00  0.00000000E+00
  0.00000000E+00  0.00000000E+00  0.00000000E+00
  0.00000000E+00  0.00000000E+00  0.00000000E+00
  0.00000000E+00  0.00000000E+00  0.00000000E+00
  0.00000000E+00  0.00000000E+00  0.00000000E+00