4x4_si_surface_from540eV_1x1x1conv      
   1.00000000000000     
    15.3329877853000003    0.0000000000000000    0.0000000000000000
     7.6664938927000001   13.2787569380000008    0.0000000000000000
     0.0000000000000000    0.0000000000000000   41.5579948425000012
   C    H    C    H    Si   Ge
    14     9     2    37   192     1
Selective dynamics
Direct
  0.3999831972448860  0.2228575649002522  0.5568131048005611   T   T   T
  0.3528340287581386  0.3155690569557237  0.5398151223375294   T   T   T
  0.4989106832153354  0.1811986620871195  0.5658547793959912   T   T   T
  0.5555839053531670  0.2295208206134944  0.5586534086830497   T   T   T
  0.5076807671624408  0.3251193672611237  0.5417985567144541   T   T   T
  0.4050163739325399  0.3642633231188626  0.5326653480642278   T   T   T
  0.6571946880232034  0.1850730855641700  0.5670134039899324   T   T   T
  0.7146833418170147  0.2292269851404640  0.5587153681348695   T   T   T
  0.6673589653874146  0.3248205954025636  0.5418547263184692   T   T   T
  0.5634661697735197  0.3732576941411523  0.5341893954320014   T   T   T
  0.8196503301104130  0.1805975028379621  0.5659834077715331   T   T   T
  0.8772341466759315  0.2219611472805312  0.5570020695448790   T   T   T
  0.8320286158654255  0.3146852607955424  0.5400150898146663   T   T   T
  0.7312097683854830  0.3636350054357891  0.5327827154876417   T   T   T
  0.3577865399751587  0.1847829252666813  0.5623026083205644   T   T   T
  0.2749056814718429  0.3477353492265181  0.5318926034757681   T   T   T
  0.5368534357410084  0.1092884676010897  0.5785766098924654   T   T   T
  0.3676761995398152  0.4333892962410744  0.5187434081849389   T   T   T
  0.6930242277691008  0.1131456425024311  0.5797993034384774   T   T   T
  0.8533182283904068  0.1087166104946817  0.5787189389887928   T   T   T
  0.9574995127615580  0.1836150112141510  0.5625198302231738   T   T   T
  0.8780486135251593  0.3466319451432724  0.5321616706785974   T   T   T
  0.6997427321225516  0.4326765418280232  0.5188292169877826   T   T   T
  0.3540663390594929  0.5923624020040492  0.5306892656235433   T   T   T
  0.5546371379578758  0.5919594160826236  0.5306760334538509   T   T   T
  0.3511334291077972  0.5661528414938175  0.5550265529645486   T   T   T
  0.2976829898639082  0.5882880354472348  0.5156202639950251   T   T   T
  0.3364969503128208  0.6709469504876324  0.5317473631114495   T   T   T
  0.5837178012037185  0.5657232248636603  0.5550168224950340   T   T   T
  0.4938269977028114  0.6706357225887771  0.5317233866724536   T   T   T
  0.6152070857492404  0.5876180905435078  0.5156041578904862   T   T   T
  0.0003171504731583  0.9998590033461880  0.0206476372957098   T   T   T
  0.5001788879343820  0.9998764827043658  0.0206443043559972   T   T   T
  0.0003085013271686  0.4997787337444777  0.0206310253100099   T   T   T
  0.5003041922728073  0.4997726378004970  0.0206376489575533   T   T   T
  0.2502811224809136  0.9998889294270583  0.0206531770699883   T   T   T
  0.7503231644638788  0.9998250001911160  0.0206346284782271   T   T   T
  0.2503320149706454  0.4997931409453074  0.0206342747449639   T   T   T
  0.7503076972812366  0.4997795947059700  0.0206357912534259   T   T   T
  0.0003638217718560  0.2496860803500667  0.0206407256512264   T   T   T
  0.5003330142832709  0.2497728014551797  0.0206319018734078   T   T   T
  0.0003442763800550  0.7497288198358163  0.0206204035253563   T   T   T
  0.5003502082066618  0.7497015354034104  0.0206183690948762   T   T   T
  0.2503657742826917  0.2496588989985682  0.0206446712904622   T   T   T
  0.7503202287935196  0.2497436163963442  0.0206398487165913   T   T   T
  0.2503492967421650  0.7496935191248042  0.0206255530560497   T   T   T
  0.7503637008192499  0.7497108622038198  0.0206182842030387   T   T   T
  0.0009735300896168  0.0004568067520054  0.4874256203756246   T   T   T
  0.4991616240278844  0.0003987160314836  0.4874380903153792   T   T   T
  0.0008452740524092  0.4987323709575477  0.4874201083069707   T   T   T
  0.2506359158568827  0.9993751367625094  0.4872143836040195   T   T   T
  0.7492074863158820  0.0022278662792559  0.4874571883262959   T   T   T
  0.2414527817765446  0.5029686165318665  0.4871459705673828   T   T   T
  0.7563785242787802  0.5027756682672901  0.4871379620463259   T   T   T
  0.0011336883069788  0.2492666624788882  0.4872519471969738   T   T   T
  0.5076544755386365  0.2389002636113844  0.4869484476319386   T   T   T
  0.0011798922864372  0.7493835520166527  0.4875385450411756   T   T   T
  0.4992582093888842  0.7558707802553997  0.4870138780874669   T   T   T
  0.2501585492824674  0.2491609648354327  0.4872781272267872   T   T   T
  0.7542142003836858  0.2388031706113694  0.4869518640099741   T   T   T
  0.2454179595887069  0.7559473422795904  0.4870029459248784   T   T   T
  0.7500599519452535  0.7493626707089192  0.4875546381546769   T   T   T
  0.0003212481761921  0.9997885352015246  0.0568434617531821   T   T   T
  0.5002860478591415  0.9997942738379422  0.0568400988562843   T   T   T
  0.0003166424394010  0.4997728591982238  0.0568268643670748   T   T   T
  0.5003163541196614  0.4997672253046943  0.0568328942869414   T   T   T
  0.2503136366629803  0.9997919833638278  0.0568493121237523   T   T   T
  0.7503237421840154  0.9997789859987307  0.0568299995901853   T   T   T
  0.2503224071908363  0.4997717092667813  0.0568299545657212   T   T   T
  0.7503194345881994  0.4997680698744986  0.0568314973484547   T   T   T
  0.0003300751546718  0.2497498925668893  0.0568366850022031   T   T   T
  0.5003211204277065  0.2497707784672585  0.0568271764285981   T   T   T
  0.0003253458493049  0.7497588586208721  0.0568160890342568   T   T   T
  0.5003303974125544  0.7497492928568050  0.0568141514187630   T   T   T
  0.2503290240037046  0.2497450988281145  0.0568406652265594   T   T   T
  0.7503192394004117  0.2497640359700810  0.0568353015176513   T   T   T
  0.2503277462624354  0.7497477731032021  0.0568212604731144   T   T   T
  0.7503327585548689  0.7497558735495318  0.0568139564898900   T   T   T
  0.8336590484723061  0.8330958333533331  0.0752926031186760   T   T   T
  0.3336654637360326  0.8330851697195669  0.0752897854619050   T   T   T
  0.8336559808824973  0.3330997249125289  0.0753064556465830   T   T   T
  0.3336557131019831  0.3331018709898643  0.0753024428076756   T   T   T
  0.0836572924943795  0.8330920541506188  0.0752940258956443   T   T   T
  0.5836616879087657  0.8330915389808453  0.0752850385213790   T   T   T
  0.0836500754103824  0.3331057416261203  0.0753037631488382   T   T   T
  0.5836501024825438  0.3331025130871055  0.0753093971470307   T   T   T
  0.8336517858825019  0.0831072980970475  0.0753194677970868   T   T   T
  0.3336464731165307  0.0831077016943667  0.0753478339560090   T   T   T
  0.8336518001099265  0.5831038268168598  0.0753064148824691   T   T   T
  0.3336586164795960  0.5830955131238440  0.0753154619018304   T   T   T
  0.0836569490390175  0.0831071491768824  0.0753372849896721   T   T   T
  0.5836543276667783  0.0831083336962521  0.0753050580030674   T   T   T
  0.0836551493397053  0.5831028300943970  0.0753031290415223   T   T   T
  0.5836517144513849  0.5830982896691879  0.0753090133391225   T   T   T
  0.8336566498672369  0.8330990344865086  0.1317369328312950   T   T   T
  0.3336686261829769  0.8330816156788501  0.1317316147286576   T   T   T
  0.8336516900495781  0.3331109665223124  0.1317503637249544   T   T   T
  0.3336486200345021  0.3331119009326926  0.1317457782479821   T   T   T
  0.0836535340514573  0.8330935095488812  0.1317363572481938   T   T   T
  0.5836688873113474  0.8330914900068649  0.1317273861346493   T   T   T
  0.0836305677269849  0.3331425471927147  0.1317459855947831   T   T   T
  0.5836450068343169  0.3331114513877864  0.1317537872576082   T   T   T
  0.8336494884801766  0.0831063614915237  0.1317645965843681   T   T   T
  0.3336593655350271  0.0831008256217771  0.1317953463602279   T   T   T
  0.8336456011772171  0.5831175049908808  0.1317501273401191   T   T   T
  0.3336529084472986  0.5831046576839753  0.1317612420311391   T   T   T
  0.0836528319563996  0.0830987149742342  0.1317833674351405   T   T   T
  0.5836618964971549  0.0831044162109080  0.1317488819224053   T   T   T
  0.0836480129118797  0.5831134488750394  0.1317464225798020   T   T   T
  0.5836452008709330  0.5831083446640548  0.1317545168795462   T   T   T
  0.6669783654471786  0.6664503087396909  0.1506350361729716   T   T   T
  0.1669748132777258  0.6664446585125035  0.1506397366744636   T   T   T
  0.6669734412015274  0.1664494918204298  0.1506458300739908   T   T   T
  0.1669421099481880  0.1665074704724390  0.1506588849761741   T   T   T
  0.9169870410270278  0.6664439014072343  0.1506401372398471   T   T   T
  0.4169799776667062  0.6664510196775737  0.1506451614687450   T   T   T
  0.9169618082005044  0.1664617844902025  0.1506559559891940   T   T   T
  0.4170117349180273  0.1664642880386396  0.1506498234423077   T   T   T
  0.6669905720831437  0.9164250724744107  0.1506264815216838   T   T   T
  0.1670228244856844  0.9163773031992619  0.1506328557709367   T   T   T
  0.6669896025700623  0.4164360433119469  0.1506382431070321   T   T   T
  0.1669838799736567  0.4164505176029607  0.1506376837440300   T   T   T
  0.9169976650377762  0.9164155562809881  0.1506358790043834   T   T   T
  0.4170332034621680  0.9163640269633930  0.1506342515998043   T   T   T
  0.9169746193966617  0.4164550469901442  0.1506422837180992   T   T   T
  0.4169810395661742  0.4164295049714113  0.1506447406031697   T   T   T
  0.6669127706056912  0.6665021463472200  0.2070540225198769   F   F   F
  0.1669138316313195  0.6664900970265819  0.2070590756991990   F   F   F
  0.6669035723175156  0.1665057964629781  0.2070660538992044   F   F   F
  0.1668408771840220  0.1666082156883917  0.2070816946923273   F   F   F
  0.9169252874870111  0.6664983809345202  0.2070590756991990   F   F   F
  0.4169248964164609  0.6664788007884823  0.2070653320164482   F   F   F
  0.9169248432981192  0.1665027841328168  0.2070747164923219   F   F   F
  0.4169644500674039  0.1665140803709164  0.2070674976647240   F   F   F
  0.6669177400176807  0.9164826238496531  0.2070424723957274   F   F   F
  0.1669495152207645  0.9164404512274231  0.2070463224371082   F   F   F
  0.6669161662049774  0.4164892862955725  0.2070545037750549   F   F   F
  0.1669205890675940  0.4164757308098572  0.2070557069129819   F   F   F
  0.9169485992834439  0.9164630437036152  0.2070523381267719   F   F   F
  0.4170101806186111  0.9164043032655158  0.2070482474577986   F   F   F
  0.9169387145283565  0.4164915455431952  0.2070607600923040   F   F   F
  0.4169202098956717  0.4164794962225571  0.2070634069957507   F   F   F
  0.5002798030543261  0.4997937706810376  0.2258807248900325   F   F   F
  0.0002868940431497  0.4998231409000908  0.2258812061452034   F   F   F
  0.5002863385191674  0.9998006637208334  0.2258552183658580   F   F   F
  0.0003208701956581  0.9997660219240032  0.2258609934279363   F   F   F
  0.7502816488517183  0.4998178693223068  0.2258542558555092   F   F   F
  0.2502547936954755  0.4997990422588146  0.2258679716279417   F   F   F
  0.7502884546610247  0.9997720465843187  0.2258436682417013   F   F   F
  0.2503219556666494  0.9998112068763874  0.2257789394209269   F   F   F
  0.5003186269023061  0.7497313224787021  0.2259136908693833   F   F   F
  0.0002840642262640  0.7497983468247469  0.2258920343865967   F   F   F
  0.5002940353061192  0.2498479349754348  0.2259329410763087   F   F   F
  0.0001670708790869  0.2498923668452804  0.2259490631246024   F   F   F
  0.7502689748929185  0.7498231985485546  0.2258665278624221   F   F   F
  0.2502866307688763  0.7497727420183935  0.2258932375245308   F   F   F
  0.7502544582019368  0.2498283548293969  0.2258879437176233   F   F   F
  0.2503486542705033  0.2498230832516199  0.2258978094486750   F   F   F
  0.5004932546092391  0.4996303517699019  0.2823062095383406   F   F   F
  0.0005074583600262  0.4996898452905469  0.2823086158142019   F   F   F
  0.5005132644564512  0.9996259485716052  0.2822696341451874   F   F   F
  0.0005904244587924  0.9995634427207989  0.2822778154831269   F   F   F
  0.7504622206316327  0.4997071661889620  0.2822669872417336   F   F   F
  0.2504447592165420  0.4996552034937167  0.2822855155658957   F   F   F
  0.7505111990631619  0.9995769982065141  0.2822511058210253   F   F   F
  0.2506020458414824  0.9996071215081059  0.2821526891381296   F   F   F
  0.5005670697608693  0.7495031384691515  0.2823555381935776   F   F   F
  0.0005008505837054  0.7496386933263111  0.2823235347245685   F   F   F
  0.5005387701827573  0.2497432565024056  0.2823824884832717   F   F   F
  0.0002253319410030  0.2498501942230504  0.2824029418281242   F   F   F
  0.7504619455002910  0.7496929152691720  0.2822869593314152   F   F   F
  0.2505180283763622  0.7495799528882046  0.2823244972349173   F   F   F
  0.7504109530721479  0.2497071085404912  0.2823165565245560   F   F   F
  0.2506635300791658  0.2497033431277913  0.2823285879038835   F   F   F
  0.3339113537344005  0.3331381107926390  0.3012289223155165   F   F   F
  0.8334050589291593  0.3332540855037678  0.3012380661638048   F   F   F
  0.3338059435215115  0.8330636709181434  0.3010592798670118   F   F   F
  0.8338401711784442  0.8329529677847916  0.3011336337912454   F   F   F
  0.5838723081343105  0.3331057282434315  0.3012407130672514   F   F   F
  0.0839862484965863  0.3329566179005568  0.3010871926670475   F   F   F
  0.5838289243960375  0.8329815849213063  0.3011199180188200   F   F   F
  0.0838857188324837  0.8329115482451073  0.3011569746671441   F   F   F
  0.3338456386836413  0.5828399477553603  0.3011297837498645   F   F   F
  0.8338185258127879  0.5830267122252195  0.3010968177705067   F   F   F
  0.3338450989036943  0.0828993259790636  0.3010460453497501   F   F   F
  0.8338821008836348  0.0828835112457256  0.3010227044738585   F   F   F
  0.5839839903266224  0.5827345161997854  0.3011858499775286   F   F   F
  0.0838624466172320  0.5829755026125198  0.3011699685568132   F   F   F
  0.5839005052704920  0.0829076098870019  0.3010831019980742   F   F   F
  0.0840685265804382  0.0828955605663637  0.3009803540186269   F   F   F
  0.3343781341079506  0.3335932835331974  0.3578087454419148   T   T   T
  0.8325824437606144  0.3336070816771652  0.3578111516183498   T   T   T
  0.3340715044476354  0.8324544082282799  0.3575620914359732   T   T   T
  0.8337555440562454  0.8330761384899574  0.3575687460098678   T   T   T
  0.5834537204735071  0.3337272705695327  0.3578460976585731   T   T   T
  0.0838541650084039  0.3329590512259060  0.3573833724617970   T   T   T
  0.5838150645962301  0.8331115804968547  0.3574935682153324   T   T   T
  0.0836806540124186  0.8331152258893937  0.3575151135899119   T   T   T
  0.3343318388943715  0.5825335212199576  0.3577426877873080   T   T   T
  0.8336951618141200  0.5831504443717961  0.3575132427022325   T   T   T
  0.3335683849487836  0.0832965604849747  0.3573147357735778   T   T   T
  0.8341427201429354  0.0828121457689193  0.3573340196183565   T   T   T
  0.5837638138119061  0.5824974183740181  0.3577874190150467   T   T   T
  0.0837722261279481  0.5831220408781022  0.3575684150192089   T   T   T
  0.5836704826728720  0.0827949173703360  0.3573822988024133   T   T   T
  0.0837847017092201  0.0832819233744786  0.3572619211409602   T   T   T
  0.1671023915869796  0.1663863946939017  0.3762346826830125   T   T   T
  0.6672719582102715  0.1661087713279059  0.3757601088066096   T   T   T
  0.1673118372832931  0.6664199056210762  0.3763235936896123   T   T   T
  0.6669043820507383  0.6664252576922678  0.3763243928809104   T   T   T
  0.4169235588245073  0.1664172116424538  0.3761924549497309   T   T   T
  0.9173070472142086  0.1663858957205733  0.3761534967799136   T   T   T
  0.4173346893407981  0.6659161906258433  0.3769964976850488   T   T   T
  0.9170849471969191  0.6663999127203866  0.3764691128132043   T   T   T
  0.1671909297827057  0.4162012367762387  0.3762044991561382   T   T   T
  0.6663612140873667  0.4166939610433502  0.3777231846796951   T   T   T
  0.1670050926469600  0.9167694496354102  0.3760490682021711   T   T   T
  0.6671157355240709  0.9163629031742744  0.3764976328048135   T   T   T
  0.4175215855759333  0.4167263217024058  0.3776863310553509   T   T   T
  0.9172107913160588  0.4162266564127250  0.3761567887103254   T   T   T
  0.4168568026700541  0.9167345758954255  0.3760545713919186   T   T   T
  0.9170932230691164  0.9164016297677691  0.3764795494902771   T   T   T
  0.1670400837173105  0.1665110430602113  0.4326387865967050   T   T   T
  0.6674398864504454  0.1657431237771689  0.4318581223588538   T   T   T
  0.1670490375629967  0.6667711310846798  0.4327079118214741   T   T   T
  0.6668088095320002  0.6667513263021121  0.4327167606041868   T   T   T
  0.4171968983503689  0.1664028372271034  0.4325281684186066   T   T   T
  0.9170034886881240  0.1663965689755571  0.4324934681640755   T   T   T
  0.4178243894785254  0.6649563180971114  0.4337053101224839   T   T   T
  0.9170608671484928  0.6664522489359044  0.4329371879974602   T   T   T
  0.1669150336047949  0.4160551820135154  0.4325402928888948   T   T   T
  0.6653178920453797  0.4167928496440183  0.4347147885647829   T   T   T
  0.1665990684105694  0.9172409870234119  0.4323314167550762   T   T   T
  0.6670467495708365  0.9165320723092165  0.4329761181702310   T   T   T
  0.4184801458881395  0.4168093991597388  0.4346893827315128   T   T   T
  0.9176380500469890  0.4160526394034250  0.4324927038753117   T   T   T
  0.4167885770534809  0.9172047498165057  0.4323378401633278   T   T   T
  0.9170041191595288  0.9165476322568935  0.4329603702087894   T   T   T
  0.0004070780907881  0.0000852768260131  0.4512227400281361   T   T   T
  0.5001076829435362  0.0000654874367001  0.4512354343343787   T   T   T
  0.0005055290665439  0.4995402786508265  0.4511979809641318   T   T   T
  0.4997937340822745  0.5010042247032374  0.4553229503920875   T   T   T
  0.2504045776325583  0.9998114331636287  0.4509967583018621   T   T   T
  0.7501600807756716  0.0002784546517489  0.4512616339142923   T   T   T
  0.2492505548779960  0.5000201451538047  0.4510640479949757   T   T   T
  0.7513832876422057  0.4999762917931108  0.4510555534512406   T   T   T
  0.0004135866069035  0.2495219988798354  0.4510656206159140   T   T   T
  0.5021626728658433  0.2476122233123803  0.4511002880232979   T   T   T
  0.0005766452979117  0.7497519776467172  0.4513276659528742   T   T   T
  0.4997690911160788  0.7511228675730095  0.4509355599634546   T   T   T
  0.2506502327158628  0.2495010269148068  0.4510929045274423   T   T   T
  0.7508680029670245  0.2475819775361430  0.4511038994824901   T   T   T
  0.2497037098355790  0.7511589454093581  0.4509262322199703   T   T   T
  0.7502693285889208  0.7497471804640554  0.4513446482212515   T   T   T
  0.4947189900746736  0.5111854861699925  0.5143165247064303   T   T   T
 
  0.00000000E+00  0.00000000E+00  0.00000000E+00
  0.00000000E+00  0.00000000E+00  0.00000000E+00
  0.00000000E+00  0.00000000E+00  0.00000000E+00
  0.00000000E+00  0.00000000E+00  0.00000000E+00
  0.00000000E+00  0.00000000E+00  0.00000000E+00
  0.00000000E+00  0.00000000E+00  0.00000000E+00
  0.00000000E+00  0.00000000E+00  0.00000000E+00
  0.00000000E+00  0.00000000E+00  0.00000000E+00
  0.00000000E+00  0.00000000E+00  0.00000000E+00
  0.00000000E+00  0.00000000E+00  0.00000000E+00
  0.00000000E+00  0.00000000E+00  0.00000000E+00
  0.00000000E+00  0.00000000E+00  0.00000000E+00
  0.00000000E+00  0.00000000E+00  0.00000000E+00
  0.00000000E+00  0.00000000E+00  0.00000000E+00
  0.00000000E+00  0.00000000E+00  0.00000000E+00
  0.00000000E+00  0.00000000E+00  0.00000000E+00
  0.00000000E+00  0.00000000E+00  0.00000000E+00
  0.00000000E+00  0.00000000E+00  0.00000000E+00
  0.00000000E+00  0.00000000E+00  0.00000000E+00
  0.00000000E+00  0.00000000E+00  0.00000000E+00
  0.00000000E+00  0.00000000E+00  0.00000000E+00
  0.00000000E+00  0.00000000E+00  0.00000000E+00
  0.00000000E+00  0.00000000E+00  0.00000000E+00
  0.00000000E+00  0.00000000E+00  0.00000000E+00
  0.00000000E+00  0.00000000E+00  0.00000000E+00
  0.00000000E+00  0.00000000E+00  0.00000000E+00
  0.00000000E+00  0.00000000E+00  0.00000000E+00
  0.00000000E+00  0.00000000E+00  0.00000000E+00
  0.00000000E+00  0.00000000E+00  0.00000000E+00
  0.00000000E+00  0.00000000E+00  0.00000000E+00
  0.00000000E+00  0.00000000E+00  0.00000000E+00
  0.00000000E+00  0.00000000E+00  0.00000000E+00
  0.00000000E+00  0.00000000E+00  0.00000000E+00
  0.00000000E+00  0.00000000E+00  0.00000000E+00
  0.00000000E+00  0.00000000E+00  0.00000000E+00
  0.00000000E+00  0.00000000E+00  0.00000000E+00
  0.00000000E+00  0.00000000E+00  0.00000000E+00
  0.00000000E+00  0.00000000E+00  0.00000000E+00
  0.00000000E+00  0.00000000E+00  0.00000000E+00
  0.00000000E+00  0.00000000E+00  0.00000000E+00
  0.00000000E+00  0.00000000E+00  0.00000000E+00
  0.00000000E+00  0.00000000E+00  0.00000000E+00
  0.00000000E+00  0.00000000E+00  0.00000000E+00
  0.00000000E+00  0.00000000E+00  0.00000000E+00
  0.00000000E+00  0.00000000E+00  0.00000000E+00
  0.00000000E+00  0.00000000E+00  0.00000000E+00
  0.00000000E+00  0.00000000E+00  0.00000000E+00
  0.00000000E+00  0.00000000E+00  0.00000000E+00
  0.00000000E+00  0.00000000E+00  0.00000000E+00
  0.00000000E+00  0.00000000E+00  0.00000000E+00
  0.00000000E+00  0.00000000E+00  0.00000000E+00
  0.00000000E+00  0.00000000E+00  0.00000000E+00
  0.00000000E+00  0.00000000E+00  0.00000000E+00
  0.00000000E+00  0.00000000E+00  0.00000000E+00
  0.00000000E+00  0.00000000E+00  0.00000000E+00
  0.00000000E+00  0.00000000E+00  0.00000000E+00
  0.00000000E+00  0.00000000E+00  0.00000000E+00
  0.00000000E+00  0.00000000E+00  0.00000000E+00
  0.00000000E+00  0.00000000E+00  0.00000000E+00
  0.00000000E+00  0.00000000E+00  0.00000000E+00
  0.00000000E+00  0.00000000E+00  0.00000000E+00
  0.00000000E+00  0.00000000E+00  0.00000000E+00
  0.00000000E+00  0.00000000E+00  0.00000000E+00
  0.00000000E+00  0.00000000E+00  0.00000000E+00
  0.00000000E+00  0.00000000E+00  0.00000000E+00
  0.00000000E+00  0.00000000E+00  0.00000000E+00
  0.00000000E+00  0.00000000E+00  0.00000000E+00
  0.00000000E+00  0.00000000E+00  0.00000000E+00
  0.00000000E+00  0.00000000E+00  0.00000000E+00
  0.00000000E+00  0.00000000E+00  0.00000000E+00
  0.00000000E+00  0.00000000E+00  0.00000000E+00
  0.00000000E+00  0.00000000E+00  0.00000000E+00
  0.00000000E+00  0.00000000E+00  0.00000000E+00
  0.00000000E+00  0.00000000E+00  0.00000000E+00
  0.00000000E+00  0.00000000E+00  0.00000000E+00
  0.00000000E+00  0.00000000E+00  0.00000000E+00
  0.00000000E+00  0.00000000E+00  0.00000000E+00
  0.00000000E+00  0.00000000E+00  0.00000000E+00
  0.00000000E+00  0.00000000E+00  0.00000000E+00
  0.00000000E+00  0.00000000E+00  0.00000000E+00
  0.00000000E+00  0.00000000E+00  0.00000000E+00
  0.00000000E+00  0.00000000E+00  0.00000000E+00
  0.00000000E+00  0.00000000E+00  0.00000000E+00
  0.00000000E+00  0.00000000E+00  0.00000000E+00
  0.00000000E+00  0.00000000E+00  0.00000000E+00
  0.00000000E+00  0.00000000E+00  0.00000000E+00
  0.00000000E+00  0.00000000E+00  0.00000000E+00
  0.00000000E+00  0.00000000E+00  0.00000000E+00
  0.00000000E+00  0.00000000E+00  0.00000000E+00
  0.00000000E+00  0.00000000E+00  0.00000000E+00
  0.00000000E+00  0.00000000E+00  0.00000000E+00
  0.00000000E+00  0.00000000E+00  0.00000000E+00
  0.00000000E+00  0.00000000E+00  0.00000000E+00
  0.00000000E+00  0.00000000E+00  0.00000000E+00
  0.00000000E+00  0.00000000E+00  0.00000000E+00
  0.00000000E+00  0.00000000E+00  0.00000000E+00
  0.00000000E+00  0.00000000E+00  0.00000000E+00
  0.00000000E+00  0.00000000E+00  0.00000000E+00
  0.00000000E+00  0.00000000E+00  0.00000000E+00
  0.00000000E+00  0.00000000E+00  0.00000000E+00
  0.00000000E+00  0.00000000E+00  0.00000000E+00
  0.00000000E+00  0.00000000E+00  0.00000000E+00
  0.00000000E+00  0.00000000E+00  0.00000000E+00
  0.00000000E+00  0.00000000E+00  0.00000000E+00
  0.00000000E+00  0.00000000E+00  0.00000000E+00
  0.00000000E+00  0.00000000E+00  0.00000000E+00
  0.00000000E+00  0.00000000E+00  0.00000000E+00
  0.00000000E+00  0.00000000E+00  0.00000000E+00
  0.00000000E+00  0.00000000E+00  0.00000000E+00
  0.00000000E+00  0.00000000E+00  0.00000000E+00
  0.00000000E+00  0.00000000E+00  0.00000000E+00
  0.00000000E+00  0.00000000E+00  0.00000000E+00
  0.00000000E+00  0.00000000E+00  0.00000000E+00
  0.00000000E+00  0.00000000E+00  0.00000000E+00
  0.00000000E+00  0.00000000E+00  0.00000000E+00
  0.00000000E+00  0.00000000E+00  0.00000000E+00
  0.00000000E+00  0.00000000E+00  0.00000000E+00
  0.00000000E+00  0.00000000E+00  0.00000000E+00
  0.00000000E+00  0.00000000E+00  0.00000000E+00
  0.00000000E+00  0.00000000E+00  0.00000000E+00
  0.00000000E+00  0.00000000E+00  0.00000000E+00
  0.00000000E+00  0.00000000E+00  0.00000000E+00
  0.00000000E+00  0.00000000E+00  0.00000000E+00
  0.00000000E+00  0.00000000E+00  0.00000000E+00
  0.00000000E+00  0.00000000E+00  0.00000000E+00
  0.00000000E+00  0.00000000E+00  0.00000000E+00
  0.00000000E+00  0.00000000E+00  0.00000000E+00
  0.00000000E+00  0.00000000E+00  0.00000000E+00
  0.00000000E+00  0.00000000E+00  0.00000000E+00
  0.00000000E+00  0.00000000E+00  0.00000000E+00
  0.00000000E+00  0.00000000E+00  0.00000000E+00
  0.00000000E+00  0.00000000E+00  0.00000000E+00
  0.00000000E+00  0.00000000E+00  0.00000000E+00
  0.00000000E+00  0.00000000E+00  0.00000000E+00
  0.00000000E+00  0.00000000E+00  0.00000000E+00
  0.00000000E+00  0.00000000E+00  0.00000000E+00
  0.00000000E+00  0.00000000E+00  0.00000000E+00
  0.00000000E+00  0.00000000E+00  0.00000000E+00
  0.00000000E+00  0.00000000E+00  0.00000000E+00
  0.00000000E+00  0.00000000E+00  0.00000000E+00
  0.00000000E+00  0.00000000E+00  0.00000000E+00
  0.00000000E+00  0.00000000E+00  0.00000000E+00
  0.00000000E+00  0.00000000E+00  0.00000000E+00
  0.00000000E+00  0.00000000E+00  0.00000000E+00
  0.00000000E+00  0.00000000E+00  0.00000000E+00
  0.00000000E+00  0.00000000E+00  0.00000000E+00
  0.00000000E+00  0.00000000E+00  0.00000000E+00
  0.00000000E+00  0.00000000E+00  0.00000000E+00
  0.00000000E+00  0.00000000E+00  0.00000000E+00
  0.00000000E+00  0.00000000E+00  0.00000000E+00
  0.00000000E+00  0.00000000E+00  0.00000000E+00
  0.00000000E+00  0.00000000E+00  0.00000000E+00
  0.00000000E+00  0.00000000E+00  0.00000000E+00
  0.00000000E+00  0.00000000E+00  0.00000000E+00
  0.00000000E+00  0.00000000E+00  0.00000000E+00
  0.00000000E+00  0.00000000E+00  0.00000000E+00
  0.00000000E+00  0.00000000E+00  0.00000000E+00
  0.00000000E+00  0.00000000E+00  0.00000000E+00
  0.00000000E+00  0.00000000E+00  0.00000000E+00
  0.00000000E+00  0.00000000E+00  0.00000000E+00
  0.00000000E+00  0.00000000E+00  0.00000000E+00
  0.00000000E+00  0.00000000E+00  0.00000000E+00
  0.00000000E+00  0.00000000E+00  0.00000000E+00
  0.00000000E+00  0.00000000E+00  0.00000000E+00
  0.00000000E+00  0.00000000E+00  0.00000000E+00
  0.00000000E+00  0.00000000E+00  0.00000000E+00
  0.00000000E+00  0.00000000E+00  0.00000000E+00
  0.00000000E+00  0.00000000E+00  0.00000000E+00
  0.00000000E+00  0.00000000E+00  0.00000000E+00
  0.00000000E+00  0.00000000E+00  0.00000000E+00
  0.00000000E+00  0.00000000E+00  0.00000000E+00
  0.00000000E+00  0.00000000E+00  0.00000000E+00
  0.00000000E+00  0.00000000E+00  0.00000000E+00
  0.00000000E+00  0.00000000E+00  0.00000000E+00
  0.00000000E+00  0.00000000E+00  0.00000000E+00
  0.00000000E+00  0.00000000E+00  0.00000000E+00
  0.00000000E+00  0.00000000E+00  0.00000000E+00
  0.00000000E+00  0.00000000E+00  0.00000000E+00
  0.00000000E+00  0.00000000E+00  0.00000000E+00
  0.00000000E+00  0.00000000E+00  0.00000000E+00
  0.00000000E+00  0.00000000E+00  0.00000000E+00
  0.00000000E+00  0.00000000E+00  0.00000000E+00
  0.00000000E+00  0.00000000E+00  0.00000000E+00
  0.00000000E+00  0.00000000E+00  0.00000000E+00
  0.00000000E+00  0.00000000E+00  0.00000000E+00
  0.00000000E+00  0.00000000E+00  0.00000000E+00
  0.00000000E+00  0.00000000E+00  0.00000000E+00
  0.00000000E+00  0.00000000E+00  0.00000000E+00
  0.00000000E+00  0.00000000E+00  0.00000000E+00
  0.00000000E+00  0.00000000E+00  0.00000000E+00
  0.00000000E+00  0.00000000E+00  0.00000000E+00
  0.00000000E+00  0.00000000E+00  0.00000000E+00
  0.00000000E+00  0.00000000E+00  0.00000000E+00
  0.00000000E+00  0.00000000E+00  0.00000000E+00
  0.00000000E+00  0.00000000E+00  0.00000000E+00
  0.00000000E+00  0.00000000E+00  0.00000000E+00
  0.00000000E+00  0.00000000E+00  0.00000000E+00
  0.00000000E+00  0.00000000E+00  0.00000000E+00
  0.00000000E+00  0.00000000E+00  0.00000000E+00
  0.00000000E+00  0.00000000E+00  0.00000000E+00
  0.00000000E+00  0.00000000E+00  0.00000000E+00
  0.00000000E+00  0.00000000E+00  0.00000000E+00
  0.00000000E+00  0.00000000E+00  0.00000000E+00
  0.00000000E+00  0.00000000E+00  0.00000000E+00
  0.00000000E+00  0.00000000E+00  0.00000000E+00
  0.00000000E+00  0.00000000E+00  0.00000000E+00
  0.00000000E+00  0.00000000E+00  0.00000000E+00
  0.00000000E+00  0.00000000E+00  0.00000000E+00
  0.00000000E+00  0.00000000E+00  0.00000000E+00
  0.00000000E+00  0.00000000E+00  0.00000000E+00
  0.00000000E+00  0.00000000E+00  0.00000000E+00
  0.00000000E+00  0.00000000E+00  0.00000000E+00
  0.00000000E+00  0.00000000E+00  0.00000000E+00
  0.00000000E+00  0.00000000E+00  0.00000000E+00
  0.00000000E+00  0.00000000E+00  0.00000000E+00
  0.00000000E+00  0.00000000E+00  0.00000000E+00
  0.00000000E+00  0.00000000E+00  0.00000000E+00
  0.00000000E+00  0.00000000E+00  0.00000000E+00
  0.00000000E+00  0.00000000E+00  0.00000000E+00
  0.00000000E+00  0.00000000E+00  0.00000000E+00
  0.00000000E+00  0.00000000E+00  0.00000000E+00
  0.00000000E+00  0.00000000E+00  0.00000000E+00
  0.00000000E+00  0.00000000E+00  0.00000000E+00
  0.00000000E+00  0.00000000E+00  0.00000000E+00