4x4_si_surface_from540eV_1x1x1conv      
   1.00000000000000     
    15.3329877853000003    0.0000000000000000    0.0000000000000000
     7.6664938927000001   13.2787569380000008    0.0000000000000000
     0.0000000000000000    0.0000000000000000   41.5579948425000012
   C    H    H    Si
    14     9    31   192
Selective dynamics
Direct
  0.5072584913667832  0.5013490169196141  0.5734990636886621   T   T   T
  0.4595192693073888  0.4559669518285477  0.5583871886097796   T   T   T
  0.5512773257080724  0.5453536257213846  0.5555000754632178   T   T   T
  0.4554214120587806  0.4538414193308968  0.5233032348848988   T   T   T
  0.4988664609566835  0.4987095401443852  0.5032611364694329   T   T   T
  0.5467602706782989  0.5441566479221569  0.5205226565589524   T   T   T
  0.6000768457086735  0.5911822800862692  0.5716190250687293   T   T   T
  0.6441272232611296  0.6359986933656050  0.5548383816672133   T   T   T
  0.6404163300315806  0.6358069477739637  0.5209184357637597   T   T   T
  0.5938924180835672  0.5915250747771423  0.5051256546068298   T   T   T
  0.4151376802854125  0.4116796566534499  0.5778221261840474   T   T   T
  0.3674672125963550  0.3650024081353630  0.5645397739533200   T   T   T
  0.3632016995293788  0.3611231662185063  0.5306331584831167   T   T   T
  0.4054394476224206  0.4036855860511719  0.5117653189702751   T   T   T
  0.4207608713168670  0.4162744580052905  0.6038976718342044   T   T   T
  0.3337994489266091  0.3314515598664965  0.5796023425720694   T   T   T
  0.3261927110200007  0.3241035296334119  0.5192248178474759   T   T   T
  0.4007581205660681  0.3985415875327473  0.4860053659084091   T   T   T
  0.5103415837189023  0.5023177944091305  0.5997513504493283   T   T   T
  0.5925760226045654  0.5914016053001299  0.4788825675815190   T   T   T
  0.6751968333666157  0.6708848403278062  0.5071214190873279   T   T   T
  0.6012318687056208  0.5893208277437841  0.5978821177320017   T   T   T
  0.6815008467404871  0.6709217673224589  0.5672485336527120   T   T   T
  0.0000114987825562  0.0000050426174014  0.0202980946666768   T   T   T
  0.4999813453052631  0.0000087450197515  0.0202981133516329   T   T   T
  0.0000050780164587  0.4999970253408775  0.0202980338082446   T   T   T
  0.5000087885659394  0.4999944781292069  0.0202980364013597   T   T   T
  0.2500153242183592  0.0000014003868892  0.0202981125286467   T   T   T
  0.7500261512367141  0.9999908276920264  0.0202978835174896   T   T   T
  0.2500235698300410  0.4999880142626669  0.0202980328668081   T   T   T
  0.7500081034332213  0.4999970771903413  0.0202979840637272   T   T   T
  0.0000120900872265  0.2499818246684004  0.0202980742771202   T   T   T
  0.5000039519714727  0.2500022643436781  0.0202980238822103   T   T   T
  0.0000089720518939  0.7499888353082907  0.0202978426972198   T   T   T
  0.5000184457100112  0.7499779237861107  0.0202979006343250   T   T   T
  0.2500303263678256  0.2499748415322723  0.0202981228875632   T   T   T
  0.7500118401095438  0.2499908973623207  0.0202980675473822   T   T   T
  0.2500248777285279  0.7499763040081614  0.0202980122911428   T   T   T
  0.7500269020509512  0.7499760139611472  0.0202979071759580   T   T   T
  0.0002149822673673  0.0007603086220981  0.4874282023297180   T   T   T
  0.5006915996431545  0.0000805281968173  0.4875612403646168   T   T   T
  0.0003408095642095  0.4993690556812159  0.4875884252490779   T   T   T
  0.2506056052621556  0.9994035051729264  0.4875997527171933   T   T   T
  0.7506751076538517  0.9996518724862670  0.4875975804700811   T   T   T
  0.2380503247940078  0.5087696780999911  0.4871941285854964   T   T   T
  0.7700248124182870  0.4869726703095777  0.4864068155932243   T   T   T
  0.9999044878243396  0.2491411454031603  0.4873797408508410   T   T   T
  0.5101179480357025  0.2356619748123595  0.4865938202115751   T   T   T
  0.0006060701866084  0.7494452461165917  0.4876338307797601   T   T   T
  0.4869248495807914  0.7661162694108130  0.4866288593721477   T   T   T
  0.2516279522367150  0.2485555076111547  0.4875835831921673   T   T   T
  0.7539692736091863  0.2460822357251458  0.4872638386683618   T   T   T
  0.2526503151808959  0.7488699456209321  0.4874471789443939   T   T   T
  0.7514500127003843  0.7499314037741185  0.4876200673525166   T   T   T
  0.0000000000000000  0.0000000000000000  0.0564843103450059   F   F   F
  0.5000000000228297  0.0000000000000000  0.0564843103450059   F   F   F
  0.9999999999771703  0.5000000000000000  0.0564843103450059   F   F   F
  0.5000000000000000  0.5000000000000000  0.0564843103450059   F   F   F
  0.2499999999788045  0.0000000000000000  0.0564843103450059   F   F   F
  0.7500000000016271  0.0000000000000000  0.0564843103450059   F   F   F
  0.2500000000211955  0.5000000000000000  0.0564843103450059   F   F   F
  0.7499999999788045  0.5000000000000000  0.0564843103450059   F   F   F
  0.9999999999697593  0.2500000000376517  0.0564843103450059   F   F   F
  0.4999999999925890  0.2500000000376517  0.0564843103450059   F   F   F
  0.0000000000121503  0.7500000000376517  0.0564843103450059   F   F   F
  0.4999999999697593  0.7500000000376517  0.0564843103450059   F   F   F
  0.2500000000137845  0.2500000000376517  0.0564843103450059   F   F   F
  0.7499999999713935  0.2500000000376517  0.0564843103450059   F   F   F
  0.2499999999909548  0.7500000000376517  0.0564843103450059   F   F   F
  0.7500000000137845  0.7500000000376517  0.0564843103450059   F   F   F
  0.8333333134781924  0.8333333134770555  0.0753124160311813   F   F   F
  0.3333333432603851  0.8333333134770555  0.0753124160311813   F   F   F
  0.8333333134598817  0.3333333432991239  0.0753124160311813   F   F   F
  0.3333333432420744  0.3333333432991239  0.0753124160311813   F   F   F
  0.0833333357814112  0.8333333134770555  0.0753124160311813   F   F   F
  0.5833333134341672  0.8333333134770555  0.0753124160311813   F   F   F
  0.0833333358283213  0.3333333432991239  0.0753124160311813   F   F   F
  0.5833333134810772  0.3333333432991239  0.0753124160311813   F   F   F
  0.8333333135004111  0.0833333358059534  0.0753124160311813   F   F   F
  0.3333333432826038  0.0833333358059534  0.0753124160311813   F   F   F
  0.8333333135084331  0.5833333134394039  0.0753124160311813   F   F   F
  0.3333333432906258  0.5833333134394039  0.0753124160311813   F   F   F
  0.0833333358036299  0.0833333358059534  0.0753124160311813   F   F   F
  0.5833333134563858  0.0833333358059534  0.0753124160311813   F   F   F
  0.0833333358116519  0.5833333134394039  0.0753124160311813   F   F   F
  0.5833333134644079  0.5833333134394039  0.0753124160311813   F   F   F
  0.8333333134781924  0.8333333134770555  0.1317967196386149   F   F   F
  0.3333333432603851  0.8333333134770555  0.1317967196386149   F   F   F
  0.8333333134598817  0.3333333432991239  0.1317967196386149   F   F   F
  0.3333333432420744  0.3333333432991239  0.1317967196386149   F   F   F
  0.0833333357814112  0.8333333134770555  0.1317967196386149   F   F   F
  0.5833333134341672  0.8333333134770555  0.1317967196386149   F   F   F
  0.0833333358283213  0.3333333432991239  0.1317967196386149   F   F   F
  0.5833333134810772  0.3333333432991239  0.1317967196386149   F   F   F
  0.8333333135004111  0.0833333358059534  0.1317967196386149   F   F   F
  0.3333333432826038  0.0833333358059534  0.1317967196386149   F   F   F
  0.8333333135084331  0.5833333134394039  0.1317967196386149   F   F   F
  0.3333333432906258  0.5833333134394039  0.1317967196386149   F   F   F
  0.0833333358036299  0.0833333358059534  0.1317967196386149   F   F   F
  0.5833333134563858  0.0833333358059534  0.1317967196386149   F   F   F
  0.0833333358116519  0.5833333134394039  0.1317967196386149   F   F   F
  0.5833333134644079  0.5833333134394039  0.1317967196386149   F   F   F
  0.6666666865218076  0.6666666865229445  0.1506248320623627   F   F   F
  0.1666666716290806  0.6666666865229445  0.1506248320623627   F   F   F
  0.6666666865652005  0.1666666716119067  0.1506248320623627   F   F   F
  0.1666666716724734  0.1666666716119067  0.1506248320623627   F   F   F
  0.9166666865658328  0.6666666865229445  0.1506248320623627   F   F   F
  0.4166666567379878  0.6666666865229445  0.1506248320623627   F   F   F
  0.9166666865440050  0.1666666716119067  0.1506248320623627   F   F   F
  0.4166666567161599  0.1666666716119067  0.1506248320623627   F   F   F
  0.6666666864915669  0.9166666865605961  0.1506248320623627   F   F   F
  0.1666666715988399  0.9166666865605961  0.1506248320623627   F   F   F
  0.6666666865555300  0.4166666567385278  0.1506248320623627   F   F   F
  0.1666666716628029  0.4166666567385278  0.1506248320623627   F   F   F
  0.9166666865355921  0.9166666865605961  0.1506248320623627   F   F   F
  0.4166666567077471  0.9166666865605961  0.1506248320623627   F   F   F
  0.9166666865343345  0.4166666567385278  0.1506248320623627   F   F   F
  0.4166666567064894  0.4166666567385278  0.1506248320623627   F   F   F
  0.6669125556880147  0.6665024757455171  0.2070540088762911   T   T   T 
  0.1669138819402107  0.6664901375424179  0.2070589781487726   T   T   T 
  0.6669034362224693  0.1665057241670524  0.2070659809409179   T   T   T 
  0.1668406128775217  0.1666081398529755  0.2070817910877381   T   T   T 
  0.9169253110442313  0.6664985418682576  0.2070591801556319   T   T   T 
  0.4169251919051291  0.6664786934742253  0.2070653614692617   T   T   T 
  0.9169251322956384  0.1665024310124181  0.2070747209679951   T   T   T 
  0.4169641435436446  0.1665143519324772  0.2070674488413857   T   T   T 
  0.6669179797256604  0.9164823293943769  0.2070425081289216   T   T   T 
  0.1669495105540264  0.9164407253494673  0.2070463327359704   T   T   T 
  0.6669159532031230  0.4164896309061419  0.2070545879465797   T   T   T 
  0.1669205874301483  0.4164758920448293  0.2070557191609268   T   T   T 
  0.9169487357607125  0.9164632558469705  0.2070523928454833   T   T   T 
  0.4170103072717666  0.9164042473114833  0.2070482046260906   T   T   T 
  0.9169383645095124  0.4164917469174654  0.2070607557850650   T   T   T 
  0.4169203638937233  0.4164794385364345  0.2070634357026222   T   T   T 
  0.5002796054066039  0.4997938573608351  0.2258807746036879   T   T   T 
  0.0002866708467195  0.4998232424156157  0.2258811651422619   T   T   T 
  0.5002866387433258  0.9998005032389443  0.2258552278706460   T   T   T 
  0.0003207845873732  0.9997660517460716  0.2258610859733068   T   T   T 
  0.7502815127275966  0.4998175501659290  0.2258541505087521   T   T   T 
  0.2502545416082285  0.4997989237236240  0.2258679406351121   T   T   T 
  0.7502882480860009  0.9997720718125862  0.2258436059191595   T   T   T 
  0.2503221034838035  0.9998109936787216  0.2257789109065556   T   T   T 
  0.5003188848181708  0.7497310638701578  0.2259136203895622   T   T   T 
  0.0002838932234681  0.7497983575185145  0.2258921271966585   T   T   T 
  0.5002942085047550  0.2498477250160178  0.2259330262103489   T   T   T 
  0.0001669021917721  0.2498924583448101  0.2259490383640284   T   T   T 
  0.7502693533567282  0.7498230934182359  0.2258665670125310   T   T   T 
  0.2502865791157731  0.7497724294891341  0.2258932988123732   T   T   T 
  0.7502545714232269  0.2498280257323273  0.2258878851248056   T   T   T 
  0.2503488361831288  0.2498228400812650  0.2258978910454843   T   T   T 
  0.5004931092226101  0.4996302127508656  0.2823062480146916   T   T   T 
  0.0005073074598272  0.4996896386446963  0.2823085104433858   T   T   T 
  0.5005133748238606  0.9996258616658764  0.2822696449493662   T   T   T 
  0.0005907203264073  0.9995633959543753  0.2822776981531163   T   T   T 
  0.7504622935823662  0.4997072518144492  0.2822670593096959   T   T   T 
  0.2504442930578961  0.4996555745374849  0.2822856167016710   T   T   T 
  0.7505112886462513  0.9995767474300337  0.2822510875573911   T   T   T 
  0.2506021856937011  0.9996067881937734  0.2821526983060423   T   T   T 
  0.5005670189683116  0.7495027780438477  0.2823554560914445   T   T   T 
  0.0005013006425543  0.7496383786131204  0.2823234317840857   T   T   T 
  0.5005384683693350  0.2497435361219473  0.2823824707249543   T   T   T 
  0.0002254179400794  0.2498504370168604  0.2824028865559640   T   T   T 
  0.7504621148548907  0.7496925592117520  0.2822870172745411   T   T   T 
  0.2505179047636474  0.7495799064983260  0.2823245899487219   T   T   T 
  0.7504108548276491  0.2497073114209272  0.2823166714001673   T   T   T 
  0.2506636977256775  0.2497036308053282  0.2823285222847431   T   T   T 
  0.3339116275571499  0.3331378698062295  0.3012288712062130   T   T   T 
  0.8334047794162274  0.3332540989086397  0.3012381633773487   T   T   T 
  0.3338057994478589  0.8330638408888689  0.3010591612135514   T   T   T 
  0.8338403701867065  0.8329530954322806  0.3011337140164869   T   T   T 
  0.5838721990574456  0.3331059813544712  0.3012406951404998   T   T   T 
  0.0839866548773287  0.3329563141070579  0.3010873070614011   T   T   T 
  0.5838290452626396  0.8329817652845719  0.3011200047169353   T   T   T 
  0.0838857739733641  0.8329111933926114  0.3011569309691708   T   T   T 
  0.3338453769512810  0.5828402638240959  0.3011297547542426   T   T   T 
  0.8338185548725789  0.5830264687536371  0.3010968685669937   T   T   T 
  0.3338451683463433  0.0828995778851720  0.3010459367063945   T   T   T 
  0.8338819742466796  0.0828833878154995  0.3010226928274804   T   T   T 
  0.5839840173911028  0.5827344655926439  0.3011858848203985   T   T   T 
  0.0838620215267838  0.5829758048245424  0.3011698861418637   T   T   T 
  0.5839003920401851  0.0829078480870109  0.3010831323171530   T   T   T 
  0.0840682611008248  0.0828958079539746  0.3009802989870991   T   T   T 
  0.3341807425176739  0.3331055045026119  0.3576859514357125   T   T   T 
  0.8333020806284424  0.3332821130519577  0.3577024080044779   T   T   T 
  0.3339262008859691  0.8330459594711215  0.3574554518402380   T   T   T 
  0.8340402842024091  0.8328046202392230  0.3575684391972445   T   T   T 
  0.5841082930285353  0.3330006003307417  0.3577088452014863   T   T   T 
  0.0843383967888371  0.3327531218193585  0.3574886612384560   T   T   T 
  0.5840176939760937  0.8328537344750657  0.3575440641039904   T   T   T 
  0.0841097682937360  0.8327223658531295  0.3575948343350319   T   T   T 
  0.3340439200464687  0.5826196670458259  0.3575571000553595   T   T   T 
  0.8340203762017140  0.5828934311501754  0.3575171302732230   T   T   T 
  0.3340304791600630  0.0826727003232079  0.3574555595692033   T   T   T 
  0.8341730237043592  0.0826475620514913  0.3574104454339562   T   T   T 
  0.5842128395625537  0.5824703574373089  0.3576390596641659   T   T   T 
  0.0840805024013349  0.5828307270880444  0.3576161389962280   T   T   T 
  0.5841665863753178  0.0826841220248582  0.3574929437116765   T   T   T 
  0.0844695195373717  0.0826828852374035  0.3573536689217818   T   T   T 
  0.1675023734650125  0.1661311686252063  0.3764341512214031   T   T   T 
  0.6675648093398152  0.1660238504472602  0.3763114676795425   T   T   T 
  0.1674916445973551  0.6660562157508778  0.3765603361593435   T   T   T 
  0.6673356890269204  0.6661601662943255  0.3764036621421099   T   T   T 
  0.4173511862551464  0.1660481393171835  0.3762171723937655   T   T   T 
  0.9177684187791613  0.1660137027353414  0.3759856223626201   T   T   T 
  0.4172595441153035  0.6662806272687547  0.3761352666614783   T   T   T 
  0.9173794389053072  0.6661389469888377  0.3764856756274355   T   T   T 
  0.1674747467258584  0.4161734282661200  0.3765513133467309   T   T   T 
  0.6668807268530301  0.4163315295861310  0.3771605563117930   T   T   T 
  0.1673795580418442  0.9161940813288467  0.3764315655817398   T   T   T 
  0.6674151420074281  0.9160835147293653  0.3764937019049555   T   T   T 
  0.4176887273823908  0.4162434339153194  0.3767675918999700   T   T   T 
  0.9176121950496139  0.4160366058204303  0.3762278381874751   T   T   T 
  0.4174048006448103  0.9161011576458762  0.3764760063928705   T   T   T 
  0.9174109697725399  0.9161094426834353  0.3764559676252830   T   T   T 
  0.1676790267461925  0.1660186797072285  0.4329158759267457   T   T   T 
  0.6680714488237882  0.1656516790141112  0.4327057921382220   T   T   T 
  0.1678002625607817  0.6658583879713476  0.4330440539589162   T   T   T 
  0.6674447059569886  0.6660215258320719  0.4328337277862246   T   T   T 
  0.4175401627782946  0.1657393276551318  0.4325842936872206   T   T   T 
  0.9182307123926208  0.1656825244465523  0.4322587715572155   T   T   T 
  0.4174838065946602  0.6656418442833001  0.4324237142601959   T   T   T 
  0.9175311326742630  0.6660193205051641  0.4329558187826592   T   T   T 
  0.1677591353868095  0.4160676598567292  0.4330354082097330   T   T   T 
  0.6659245490745320  0.4166469276327689  0.4338665588976056   T   T   T 
  0.1674925834270979  0.9161083101979131  0.4328924434920509   T   T   T 
  0.6675717234783534  0.9159516096114260  0.4329666731080835   T   T   T 
  0.4185498356602722  0.4165872037441787  0.4333012719272205   T   T   T 
  0.9181216359201798  0.4157228171864915  0.4325855326545991   T   T   T 
  0.4175892770658649  0.9158470034343225  0.4329598588476458   T   T   T 
  0.9175844192558245  0.9159757495216212  0.4329170610176050   T   T   T 
  0.0007576968389955  0.9996351003318580  0.4512361242660958   T   T   T 
  0.5008355378640772  0.9993880987476516  0.4513551178801691   T   T   T 
  0.0009002650186574  0.4992662072176230  0.4513811898069804   T   T   T 
  0.4991500675761458  0.5016322731940335  0.4531100985349497   T   T   T 
  0.2508808970272440  0.9993474483311644  0.4513984005266707   T   T   T 
  0.7509317398128132  0.9992946982128146  0.4514019827254856   T   T   T 
  0.2514652013966057  0.4990561306258954  0.4515267401643257   T   T   T 
  0.7516748309124495  0.4990998506821214  0.4510229161689878   T   T   T 
  0.0008127907684212  0.2492405027407969  0.4511835225222356   T   T   T 
  0.5011669397119078  0.2487820089203012  0.4508856883739085   T   T   T 
  0.0009802705446020  0.7492977380681367  0.4514341955645591   T   T   T 
  0.5006638168881921  0.7488911152174325  0.4512295254876619   T   T   T 
  0.2512162029769485  0.2492336780055879  0.4513548216194820   T   T   T 
  0.7523989677640017  0.2480821013127255  0.4510733632131192   T   T   T 
  0.2512212396046394  0.7494070529691328  0.4512665056164167   T   T   T 
  0.7508042454815254  0.7492141127705878  0.4514194358293437   T   T   T 
 
  0.00000000E+00  0.00000000E+00  0.00000000E+00
  0.00000000E+00  0.00000000E+00  0.00000000E+00
  0.00000000E+00  0.00000000E+00  0.00000000E+00
  0.00000000E+00  0.00000000E+00  0.00000000E+00
  0.00000000E+00  0.00000000E+00  0.00000000E+00
  0.00000000E+00  0.00000000E+00  0.00000000E+00
  0.00000000E+00  0.00000000E+00  0.00000000E+00
  0.00000000E+00  0.00000000E+00  0.00000000E+00
  0.00000000E+00  0.00000000E+00  0.00000000E+00
  0.00000000E+00  0.00000000E+00  0.00000000E+00
  0.00000000E+00  0.00000000E+00  0.00000000E+00
  0.00000000E+00  0.00000000E+00  0.00000000E+00
  0.00000000E+00  0.00000000E+00  0.00000000E+00
  0.00000000E+00  0.00000000E+00  0.00000000E+00
  0.00000000E+00  0.00000000E+00  0.00000000E+00
  0.00000000E+00  0.00000000E+00  0.00000000E+00
  0.00000000E+00  0.00000000E+00  0.00000000E+00
  0.00000000E+00  0.00000000E+00  0.00000000E+00
  0.00000000E+00  0.00000000E+00  0.00000000E+00
  0.00000000E+00  0.00000000E+00  0.00000000E+00
  0.00000000E+00  0.00000000E+00  0.00000000E+00
  0.00000000E+00  0.00000000E+00  0.00000000E+00
  0.00000000E+00  0.00000000E+00  0.00000000E+00
  0.00000000E+00  0.00000000E+00  0.00000000E+00
  0.00000000E+00  0.00000000E+00  0.00000000E+00
  0.00000000E+00  0.00000000E+00  0.00000000E+00
  0.00000000E+00  0.00000000E+00  0.00000000E+00
  0.00000000E+00  0.00000000E+00  0.00000000E+00
  0.00000000E+00  0.00000000E+00  0.00000000E+00
  0.00000000E+00  0.00000000E+00  0.00000000E+00
  0.00000000E+00  0.00000000E+00  0.00000000E+00
  0.00000000E+00  0.00000000E+00  0.00000000E+00
  0.00000000E+00  0.00000000E+00  0.00000000E+00
  0.00000000E+00  0.00000000E+00  0.00000000E+00
  0.00000000E+00  0.00000000E+00  0.00000000E+00
  0.00000000E+00  0.00000000E+00  0.00000000E+00
  0.00000000E+00  0.00000000E+00  0.00000000E+00
  0.00000000E+00  0.00000000E+00  0.00000000E+00
  0.00000000E+00  0.00000000E+00  0.00000000E+00
  0.00000000E+00  0.00000000E+00  0.00000000E+00
  0.00000000E+00  0.00000000E+00  0.00000000E+00
  0.00000000E+00  0.00000000E+00  0.00000000E+00
  0.00000000E+00  0.00000000E+00  0.00000000E+00
  0.00000000E+00  0.00000000E+00  0.00000000E+00
  0.00000000E+00  0.00000000E+00  0.00000000E+00
  0.00000000E+00  0.00000000E+00  0.00000000E+00
  0.00000000E+00  0.00000000E+00  0.00000000E+00
  0.00000000E+00  0.00000000E+00  0.00000000E+00
  0.00000000E+00  0.00000000E+00  0.00000000E+00
  0.00000000E+00  0.00000000E+00  0.00000000E+00
  0.00000000E+00  0.00000000E+00  0.00000000E+00
  0.00000000E+00  0.00000000E+00  0.00000000E+00
  0.00000000E+00  0.00000000E+00  0.00000000E+00
  0.00000000E+00  0.00000000E+00  0.00000000E+00
  0.00000000E+00  0.00000000E+00  0.00000000E+00
  0.00000000E+00  0.00000000E+00  0.00000000E+00
  0.00000000E+00  0.00000000E+00  0.00000000E+00
  0.00000000E+00  0.00000000E+00  0.00000000E+00
  0.00000000E+00  0.00000000E+00  0.00000000E+00
  0.00000000E+00  0.00000000E+00  0.00000000E+00
  0.00000000E+00  0.00000000E+00  0.00000000E+00
  0.00000000E+00  0.00000000E+00  0.00000000E+00
  0.00000000E+00  0.00000000E+00  0.00000000E+00
  0.00000000E+00  0.00000000E+00  0.00000000E+00
  0.00000000E+00  0.00000000E+00  0.00000000E+00
  0.00000000E+00  0.00000000E+00  0.00000000E+00
  0.00000000E+00  0.00000000E+00  0.00000000E+00
  0.00000000E+00  0.00000000E+00  0.00000000E+00
  0.00000000E+00  0.00000000E+00  0.00000000E+00
  0.00000000E+00  0.00000000E+00  0.00000000E+00
  0.00000000E+00  0.00000000E+00  0.00000000E+00
  0.00000000E+00  0.00000000E+00  0.00000000E+00
  0.00000000E+00  0.00000000E+00  0.00000000E+00
  0.00000000E+00  0.00000000E+00  0.00000000E+00
  0.00000000E+00  0.00000000E+00  0.00000000E+00
  0.00000000E+00  0.00000000E+00  0.00000000E+00
  0.00000000E+00  0.00000000E+00  0.00000000E+00
  0.00000000E+00  0.00000000E+00  0.00000000E+00
  0.00000000E+00  0.00000000E+00  0.00000000E+00
  0.00000000E+00  0.00000000E+00  0.00000000E+00
  0.00000000E+00  0.00000000E+00  0.00000000E+00
  0.00000000E+00  0.00000000E+00  0.00000000E+00
  0.00000000E+00  0.00000000E+00  0.00000000E+00
  0.00000000E+00  0.00000000E+00  0.00000000E+00
  0.00000000E+00  0.00000000E+00  0.00000000E+00
  0.00000000E+00  0.00000000E+00  0.00000000E+00
  0.00000000E+00  0.00000000E+00  0.00000000E+00
  0.00000000E+00  0.00000000E+00  0.00000000E+00
  0.00000000E+00  0.00000000E+00  0.00000000E+00
  0.00000000E+00  0.00000000E+00  0.00000000E+00
  0.00000000E+00  0.00000000E+00  0.00000000E+00
  0.00000000E+00  0.00000000E+00  0.00000000E+00
  0.00000000E+00  0.00000000E+00  0.00000000E+00
  0.00000000E+00  0.00000000E+00  0.00000000E+00
  0.00000000E+00  0.00000000E+00  0.00000000E+00
  0.00000000E+00  0.00000000E+00  0.00000000E+00
  0.00000000E+00  0.00000000E+00  0.00000000E+00
  0.00000000E+00  0.00000000E+00  0.00000000E+00
  0.00000000E+00  0.00000000E+00  0.00000000E+00
  0.00000000E+00  0.00000000E+00  0.00000000E+00
  0.00000000E+00  0.00000000E+00  0.00000000E+00
  0.00000000E+00  0.00000000E+00  0.00000000E+00
  0.00000000E+00  0.00000000E+00  0.00000000E+00
  0.00000000E+00  0.00000000E+00  0.00000000E+00
  0.00000000E+00  0.00000000E+00  0.00000000E+00
  0.00000000E+00  0.00000000E+00  0.00000000E+00
  0.00000000E+00  0.00000000E+00  0.00000000E+00
  0.00000000E+00  0.00000000E+00  0.00000000E+00
  0.00000000E+00  0.00000000E+00  0.00000000E+00
  0.00000000E+00  0.00000000E+00  0.00000000E+00
  0.00000000E+00  0.00000000E+00  0.00000000E+00
  0.00000000E+00  0.00000000E+00  0.00000000E+00
  0.00000000E+00  0.00000000E+00  0.00000000E+00
  0.00000000E+00  0.00000000E+00  0.00000000E+00
  0.00000000E+00  0.00000000E+00  0.00000000E+00
  0.00000000E+00  0.00000000E+00  0.00000000E+00
  0.00000000E+00  0.00000000E+00  0.00000000E+00
  0.00000000E+00  0.00000000E+00  0.00000000E+00
  0.00000000E+00  0.00000000E+00  0.00000000E+00
  0.00000000E+00  0.00000000E+00  0.00000000E+00
  0.00000000E+00  0.00000000E+00  0.00000000E+00
  0.00000000E+00  0.00000000E+00  0.00000000E+00
  0.00000000E+00  0.00000000E+00  0.00000000E+00
  0.00000000E+00  0.00000000E+00  0.00000000E+00
  0.00000000E+00  0.00000000E+00  0.00000000E+00
  0.00000000E+00  0.00000000E+00  0.00000000E+00
  0.00000000E+00  0.00000000E+00  0.00000000E+00
  0.00000000E+00  0.00000000E+00  0.00000000E+00
  0.00000000E+00  0.00000000E+00  0.00000000E+00
  0.00000000E+00  0.00000000E+00  0.00000000E+00
  0.00000000E+00  0.00000000E+00  0.00000000E+00
  0.00000000E+00  0.00000000E+00  0.00000000E+00
  0.00000000E+00  0.00000000E+00  0.00000000E+00
  0.00000000E+00  0.00000000E+00  0.00000000E+00
  0.00000000E+00  0.00000000E+00  0.00000000E+00
  0.00000000E+00  0.00000000E+00  0.00000000E+00
  0.00000000E+00  0.00000000E+00  0.00000000E+00
  0.00000000E+00  0.00000000E+00  0.00000000E+00
  0.00000000E+00  0.00000000E+00  0.00000000E+00
  0.00000000E+00  0.00000000E+00  0.00000000E+00
  0.00000000E+00  0.00000000E+00  0.00000000E+00
  0.00000000E+00  0.00000000E+00  0.00000000E+00
  0.00000000E+00  0.00000000E+00  0.00000000E+00
  0.00000000E+00  0.00000000E+00  0.00000000E+00
  0.00000000E+00  0.00000000E+00  0.00000000E+00
  0.00000000E+00  0.00000000E+00  0.00000000E+00
  0.00000000E+00  0.00000000E+00  0.00000000E+00
  0.00000000E+00  0.00000000E+00  0.00000000E+00
  0.00000000E+00  0.00000000E+00  0.00000000E+00
  0.00000000E+00  0.00000000E+00  0.00000000E+00
  0.00000000E+00  0.00000000E+00  0.00000000E+00
  0.00000000E+00  0.00000000E+00  0.00000000E+00
  0.00000000E+00  0.00000000E+00  0.00000000E+00
  0.00000000E+00  0.00000000E+00  0.00000000E+00
  0.00000000E+00  0.00000000E+00  0.00000000E+00
  0.00000000E+00  0.00000000E+00  0.00000000E+00
  0.00000000E+00  0.00000000E+00  0.00000000E+00
  0.00000000E+00  0.00000000E+00  0.00000000E+00
  0.00000000E+00  0.00000000E+00  0.00000000E+00
  0.00000000E+00  0.00000000E+00  0.00000000E+00
  0.00000000E+00  0.00000000E+00  0.00000000E+00
  0.00000000E+00  0.00000000E+00  0.00000000E+00
  0.00000000E+00  0.00000000E+00  0.00000000E+00
  0.00000000E+00  0.00000000E+00  0.00000000E+00
  0.00000000E+00  0.00000000E+00  0.00000000E+00
  0.00000000E+00  0.00000000E+00  0.00000000E+00
  0.00000000E+00  0.00000000E+00  0.00000000E+00
  0.00000000E+00  0.00000000E+00  0.00000000E+00
  0.00000000E+00  0.00000000E+00  0.00000000E+00
  0.00000000E+00  0.00000000E+00  0.00000000E+00
  0.00000000E+00  0.00000000E+00  0.00000000E+00
  0.00000000E+00  0.00000000E+00  0.00000000E+00
  0.00000000E+00  0.00000000E+00  0.00000000E+00
  0.00000000E+00  0.00000000E+00  0.00000000E+00
  0.00000000E+00  0.00000000E+00  0.00000000E+00
  0.00000000E+00  0.00000000E+00  0.00000000E+00
  0.00000000E+00  0.00000000E+00  0.00000000E+00
  0.00000000E+00  0.00000000E+00  0.00000000E+00
  0.00000000E+00  0.00000000E+00  0.00000000E+00
  0.00000000E+00  0.00000000E+00  0.00000000E+00
  0.00000000E+00  0.00000000E+00  0.00000000E+00
  0.00000000E+00  0.00000000E+00  0.00000000E+00
  0.00000000E+00  0.00000000E+00  0.00000000E+00
  0.00000000E+00  0.00000000E+00  0.00000000E+00
  0.00000000E+00  0.00000000E+00  0.00000000E+00
  0.00000000E+00  0.00000000E+00  0.00000000E+00
  0.00000000E+00  0.00000000E+00  0.00000000E+00
  0.00000000E+00  0.00000000E+00  0.00000000E+00
  0.00000000E+00  0.00000000E+00  0.00000000E+00
  0.00000000E+00  0.00000000E+00  0.00000000E+00
  0.00000000E+00  0.00000000E+00  0.00000000E+00
  0.00000000E+00  0.00000000E+00  0.00000000E+00
  0.00000000E+00  0.00000000E+00  0.00000000E+00
  0.00000000E+00  0.00000000E+00  0.00000000E+00
  0.00000000E+00  0.00000000E+00  0.00000000E+00
  0.00000000E+00  0.00000000E+00  0.00000000E+00
  0.00000000E+00  0.00000000E+00  0.00000000E+00
  0.00000000E+00  0.00000000E+00  0.00000000E+00
  0.00000000E+00  0.00000000E+00  0.00000000E+00
  0.00000000E+00  0.00000000E+00  0.00000000E+00
  0.00000000E+00  0.00000000E+00  0.00000000E+00
  0.00000000E+00  0.00000000E+00  0.00000000E+00
  0.00000000E+00  0.00000000E+00  0.00000000E+00
  0.00000000E+00  0.00000000E+00  0.00000000E+00
  0.00000000E+00  0.00000000E+00  0.00000000E+00
  0.00000000E+00  0.00000000E+00  0.00000000E+00
  0.00000000E+00  0.00000000E+00  0.00000000E+00
  0.00000000E+00  0.00000000E+00  0.00000000E+00
  0.00000000E+00  0.00000000E+00  0.00000000E+00
  0.00000000E+00  0.00000000E+00  0.00000000E+00
  0.00000000E+00  0.00000000E+00  0.00000000E+00
  0.00000000E+00  0.00000000E+00  0.00000000E+00
  0.00000000E+00  0.00000000E+00  0.00000000E+00
  0.00000000E+00  0.00000000E+00  0.00000000E+00
  0.00000000E+00  0.00000000E+00  0.00000000E+00
  0.00000000E+00  0.00000000E+00  0.00000000E+00
  0.00000000E+00  0.00000000E+00  0.00000000E+00
  0.00000000E+00  0.00000000E+00  0.00000000E+00
  0.00000000E+00  0.00000000E+00  0.00000000E+00
  0.00000000E+00  0.00000000E+00  0.00000000E+00
  0.00000000E+00  0.00000000E+00  0.00000000E+00
  0.00000000E+00  0.00000000E+00  0.00000000E+00
  0.00000000E+00  0.00000000E+00  0.00000000E+00
  0.00000000E+00  0.00000000E+00  0.00000000E+00
  0.00000000E+00  0.00000000E+00  0.00000000E+00
  0.00000000E+00  0.00000000E+00  0.00000000E+00
  0.00000000E+00  0.00000000E+00  0.00000000E+00
  0.00000000E+00  0.00000000E+00  0.00000000E+00
  0.00000000E+00  0.00000000E+00  0.00000000E+00
  0.00000000E+00  0.00000000E+00  0.00000000E+00
  0.00000000E+00  0.00000000E+00  0.00000000E+00
  0.00000000E+00  0.00000000E+00  0.00000000E+00
  0.00000000E+00  0.00000000E+00  0.00000000E+00
  0.00000000E+00  0.00000000E+00  0.00000000E+00
  0.00000000E+00  0.00000000E+00  0.00000000E+00
  0.00000000E+00  0.00000000E+00  0.00000000E+00