##
SYSTEM = Si_surface_6layer

#ISTART = 0
#ICHARG = 1
#LWAVE = F
#LCHARG = F

# vdw-forces
IVDW = 12

# Spin
#ISPIN = 2     # 2==spin-polarized calculation
#NUPDOWN = 2   # 2 more electrons in the upvs down spin component

# elec
ISMEAR = 0
SIGMA = 0.01
ENCUT = 540    # PEYTON'S NOTE: this doesn't fully converge C_GW potential, but was highest I could go for reasonable calculation run times. SINA'S NOTE: I'm keeping this value although I don't have any C atoms so that calculations are more comparable
EDIFF = 1e-4 # I typically use 1e-8, but I've reduced it for the ai-MD
NELMIN = 5

# forces
EDIFFG = -9.5e-3
PREC = Accurate
#NGXF = 480    # 4x fine grid (as opposed to default 2x) if forces are being weird
#NGYF = 480
#NGZF = 1152

# relax
IBRION = 0 # MD
ISIF = 2
NSW = 100     # combined with POTIM, this means the calculation will run for POTIM*NSW femtosseconds, just check force convergence if 1

# MD specific tags
NWRITE = 1   # reduce the verbosity of the OUTCAR a little bit
POTIM = 1.0  # time step in femtoseconds
MDALGO = 2   # NVT ensemble with Nose-Hoover thermostat
TEBEG = 300  # sets the starting temperature (in K)
SMASS = -1   # velocity control, -1 scales the velocities to the temperature

# misc
NBANDS = 640
NCORE = 16    # 8 seems to be a good value for Enemy, not sure what KPAR should be in this case
KPAR = 5
ISYM = 0
IDIPOL = 3   # needed since we have vacuum

## DOS-related: turn on for DOS
#LORBIT = 11
#EMIN = -7
#EMAX = 5
#NEDOS = 6001
