4x4_si_surface_from540eV_1x1x1conv      
   1.00000000000000     
    15.3329875905893491    0.0000000000000000    0.0000000000000000
     7.6664937952946746   13.2787567693619284    0.0000000000000000
     0.0000000000000000    0.0000000000000000   37.5579958293703626
   C    H    Si   H 
    16    29   192    15
Selective dynamics
Direct
  0.5745421202360390  0.4192380024708342  0.6107106536698197   T   T   T
  0.5258237886363162  0.3760544676148214  0.6297450536744833   T   T   T
  0.6230324721069067  0.4631320749892893  0.6294915499051612   T   T   T
  0.5309000499546954  0.3716874597131294  0.6682339574784706   T   T   T
  0.6271064892103624  0.4590956554232619  0.6679724654862582   T   T   T
  0.5774777224418628  0.4161863750240542  0.5705627098550465   T   T   T
  0.5819230217064657  0.4125855677725028  0.6862695426638581   T   T   T
  0.4708503641086779  0.3353968420730808  0.6125649219179863   T   T   T
  0.6693836563119149  0.5122199856917362  0.6119627269360564   T   T   T
  0.4842948810564280  0.3248806418426753  0.6870159667728544   T   T   T
  0.6780711492147873  0.5019029369552825  0.6864579127744364   T   T   T
  0.4928931894019186  0.5101593803393953  0.5521956415343396   T   T   T
  0.4262534502397983  0.2916580536984910  0.6315828477263921   T   T   T
  0.7171254632171724  0.5532480954887262  0.6306747420195720   T   T   T
  0.4335769276870849  0.2854883000816599  0.6693055111404007   T   T   T
  0.7220950350372206  0.5477418419069053  0.6684381179477086   T   T   T
  0.5761954875804349  0.3489008883695490  0.5612307530412224   T   T   T
  0.5863870311314443  0.4083063608854616  0.7153115073703731   T   T   T
  0.4632692639864260  0.3395696562519603  0.5836977526244240   T   T   T
  0.6665519963974873  0.5180375987746260  0.5830481501615878   T   T   T
  0.4900240232289406  0.3211848082087840  0.7160189837162818   T   T   T
  0.6811448381596321  0.4973166632809125  0.7154861606773721   T   T   T
  0.6505005843664335  0.4053466438279116  0.5615916693473295   T   T   T
  0.4183537048997863  0.5233639772763468  0.5605309170504853   T   T   T
  0.4959926590887136  0.5777433641262775  0.5601066544941276   T   T   T
  0.3847960601947236  0.2613803777056916  0.6175910259716488   T   T   T
  0.7515489450039183  0.5904051750319468  0.6164058340876650   T   T   T
  0.3985190115356545  0.2497632181669047  0.6840322839100494   T   T   T
  0.7607613007217395  0.5801383782120197  0.6829408357025883   T   T   T
  0.0000017002076262  0.0000100389243514  0.0224595476208904   T   T   T
  0.4999805577142169  0.0000156750961935  0.0224594283505297   T   T   T
  0.9999983366418732  0.5000097575752349  0.0224592863931079   T   T   T
  0.5000035518481667  0.4999977746727566  0.0224591748875227   T   T   T
  0.2500101401952932  0.0000072375277753  0.0224595234926070   T   T   T
  0.7500148815428389  0.9999979951372637  0.0224593451567827   T   T   T
  0.2500098426207060  0.4999963883216552  0.0224592941894599   T   T   T
  0.7500093409230288  0.4999929359736797  0.0224592127020173   T   T   T
  0.0000052879475376  0.2499836524074865  0.0224593593432445   T   T   T
  0.5000050429394562  0.2499960173898188  0.0224591707545940   T   T   T
  0.0000043832141898  0.7499864094628919  0.0224593802519806   T   T   T
  0.5000064551063517  0.7499862196785543  0.0224592390756371   T   T   T
  0.2500253628068023  0.2499719784979604  0.0224593734902712   T   T   T
  0.7500132508817501  0.2499898441884980  0.0224592332007703   T   T   T
  0.2500177599806719  0.7499841876404858  0.0224593903450483   T   T   T
  0.7500281646639309  0.7499807195674322  0.0224592365498211   T   T   T
  0.0000000000000000  0.0000000000000000  0.0625000000000000   F   F   F
  0.5000000000000000  0.0000000000000000  0.0625000000000000   F   F   F
  0.0000000000000000  0.5000000000000000  0.0625000000000000   F   F   F
  0.5000000000000000  0.5000000000000000  0.0625000000000000   F   F   F
  0.2500000000000000  0.0000000000000000  0.0625000000000000   F   F   F
  0.7500000000000000  0.0000000000000000  0.0625000000000000   F   F   F
  0.2500000000000000  0.5000000000000000  0.0625000000000000   F   F   F
  0.7500000000000000  0.5000000000000000  0.0625000000000000   F   F   F
  0.0000000000000000  0.2500000000000000  0.0625000000000000   F   F   F
  0.5000000000000000  0.2500000000000000  0.0625000000000000   F   F   F
  0.0000000000000000  0.7500000000000000  0.0625000000000000   F   F   F
  0.5000000000000000  0.7500000000000000  0.0625000000000000   F   F   F
  0.2500000000000000  0.2500000000000000  0.0625000000000000   F   F   F
  0.7500000000000000  0.2500000000000000  0.0625000000000000   F   F   F
  0.2500000000000000  0.7500000000000000  0.0625000000000000   F   F   F
  0.7500000000000000  0.7500000000000000  0.0625000000000000   F   F   F
  0.8333333333333357  0.8333333333333357  0.0833333333333357   F   F   F
  0.3333333333333357  0.8333333333333357  0.0833333333333357   F   F   F
  0.8333333333333357  0.3333333333333357  0.0833333333333357   F   F   F
  0.3333333333333357  0.3333333333333357  0.0833333333333357   F   F   F
  0.0833333333333357  0.8333333333333357  0.0833333333333357   F   F   F
  0.5833333333333357  0.8333333333333357  0.0833333333333357   F   F   F
  0.0833333333333357  0.3333333333333357  0.0833333333333357   F   F   F
  0.5833333333333357  0.3333333333333357  0.0833333333333357   F   F   F
  0.8333333333333357  0.0833333333333357  0.0833333333333357   F   F   F
  0.3333333333333357  0.0833333333333357  0.0833333333333357   F   F   F
  0.8333333333333357  0.5833333333333357  0.0833333333333357   F   F   F
  0.3333333333333357  0.5833333333333357  0.0833333333333357   F   F   F
  0.0833333333333357  0.0833333333333357  0.0833333333333357   F   F   F
  0.5833333333333357  0.0833333333333357  0.0833333333333357   F   F   F
  0.0833333333333357  0.5833333333333357  0.0833333333333357   F   F   F
  0.5833333333333357  0.5833333333333357  0.0833333333333357   F   F   F
  0.8333333333333357  0.8333333333333357  0.1458333333333357   F   F   F
  0.3333333333333357  0.8333333333333357  0.1458333333333357   F   F   F
  0.8333333333333357  0.3333333333333357  0.1458333333333357   F   F   F
  0.3333333333333357  0.3333333333333357  0.1458333333333357   F   F   F
  0.0833333333333357  0.8333333333333357  0.1458333333333357   F   F   F
  0.5833333333333357  0.8333333333333357  0.1458333333333357   F   F   F
  0.0833333333333357  0.3333333333333357  0.1458333333333357   F   F   F
  0.5833333333333357  0.3333333333333357  0.1458333333333357   F   F   F
  0.8333333333333357  0.0833333333333357  0.1458333333333357   F   F   F
  0.3333333333333357  0.0833333333333357  0.1458333333333357   F   F   F
  0.8333333333333357  0.5833333333333357  0.1458333333333357   F   F   F
  0.3333333333333357  0.5833333333333357  0.1458333333333357   F   F   F
  0.0833333333333357  0.0833333333333357  0.1458333333333357   F   F   F
  0.5833333333333357  0.0833333333333357  0.1458333333333357   F   F   F
  0.0833333333333357  0.5833333333333357  0.1458333333333357   F   F   F
  0.5833333333333357  0.5833333333333357  0.1458333333333357   F   F   F
  0.6666666666666643  0.6666666666666643  0.1666666666666643   F   F   F
  0.1666666666666643  0.6666666666666643  0.1666666666666643   F   F   F
  0.6666666666666643  0.1666666666666643  0.1666666666666643   F   F   F
  0.1666666666666643  0.1666666666666643  0.1666666666666643   F   F   F
  0.9166666666666643  0.6666666666666643  0.1666666666666643   F   F   F
  0.4166666666666643  0.6666666666666643  0.1666666666666643   F   F   F
  0.9166666666666643  0.1666666666666643  0.1666666666666643   F   F   F
  0.4166666666666643  0.1666666666666643  0.1666666666666643   F   F   F
  0.6666666666666643  0.9166666666666643  0.1666666666666643   F   F   F
  0.1666666666666643  0.9166666666666643  0.1666666666666643   F   F   F
  0.6666666666666643  0.4166666666666643  0.1666666666666643   F   F   F
  0.1666666666666643  0.4166666666666643  0.1666666666666643   F   F   F
  0.9166666666666643  0.9166666666666643  0.1666666666666643   F   F   F
  0.4166666666666643  0.9166666666666643  0.1666666666666643   F   F   F
  0.9166666666666643  0.4166666666666643  0.1666666666666643   F   F   F
  0.4166666666666643  0.4166666666666643  0.1666666666666643   F   F   F
  0.6669164610440816  0.6664948158135431  0.2291162893172753   T   T   T
  0.1669240877075282  0.6664837598664093  0.2291205086647707   T   T   T
  0.6669080815670085  0.1665087751617094  0.2291282424411989   T   T   T
  0.1668478286576942  0.1666028943249600  0.2291336564696493   T   T   T
  0.9169340538194390  0.6664860055679185  0.2291202260357750   T   T   T
  0.4169361684798503  0.6664674527866694  0.2291272700211167   T   T   T
  0.9169207590492832  0.1665004186657271  0.2291334054742507   T   T   T
  0.4169753564963230  0.1665083140305583  0.2291256299244111   T   T   T
  0.6669262553416360  0.9164718200496793  0.2291037048438156   T   T   T
  0.1669518711267699  0.9164303347896237  0.2291044703907943   T   T   T
  0.6669161269364068  0.4164866094078050  0.2291189137220684   T   T   T
  0.1669250743778932  0.4164777890687645  0.2291154589225712   T   T   T
  0.9169579043953604  0.9164547005570327  0.2291135430321702   T   T   T
  0.4170189666271682  0.9163965170350465  0.2291069528743677   T   T   T
  0.9169331562476657  0.4164967690296422  0.2291208680457473   T   T   T
  0.4169337294880364  0.4164757054036343  0.2291271105946393   T   T   T
  0.5002841565197897  0.4997926650265683  0.2499763550478349   T   T   T
  0.0002927461717306  0.4998136930651569  0.2499708460840822   T   T   T
  0.5002885357365869  0.9997987744275463  0.2499379230849854   T   T   T
  0.0003227299436830  0.9997684579473685  0.2499441531708513   T   T   T
  0.7502817890405638  0.4998129168371790  0.2499414363314543   T   T   T
  0.2502651940796170  0.4997938472250638  0.2499514868035320   T   T   T
  0.7502935536914777  0.9997707071957223  0.2499222905604483   T   T   T
  0.2503207399826906  0.9998120450935133  0.2498414402411200   T   T   T
  0.5003214787888766  0.7497261232700225  0.2500043227903603   T   T   T
  0.0002913834772329  0.7497871678269021  0.2499794390553589   T   T   T
  0.5002987184338821  0.2498424919560804  0.2500248985686824   T   T   T
  0.0001758641822889  0.2498849086541171  0.2500281251813732   T   T   T
  0.7502804722294272  0.7498097956057634  0.2499536551257151   T   T   T
  0.2502977416490779  0.7497644586493877  0.2499808143559932   T   T   T
  0.7502605382532508  0.2498263462851043  0.2499801654641942   T   T   T
  0.2503534599881050  0.2498150400941768  0.2499744235186583   T   T   T
  0.5004876077346410  0.4996372690527409  0.3124189428681206   T   T   T
  0.0005110338348047  0.4996788584316576  0.3124131451097796   T   T   T
  0.5005021754990722  0.9996346314291102  0.3123653335799474   T   T   T
  0.0005899677330987  0.9995727268554120  0.3123741011626748   T   T   T
  0.7504749655079621  0.4996954427961668  0.3123683156186416   T   T   T
  0.2504406355630024  0.4996490714681272  0.3123828723804962   T   T   T
  0.7505137871638183  0.9995776209029614  0.3123421501839374   T   T   T
  0.2505738679860485  0.9996520124388582  0.3122230469907805   T   T   T
  0.5005543692317360  0.7495179082258758  0.3124623756378497   T   T   T
  0.0004988821987340  0.7496335761297388  0.3124256163137176   T   T   T
  0.5005295493926951  0.2497320188072365  0.3124912221932803   T   T   T
  0.0002664081161328  0.2498243116510821  0.3124979277853441   T   T   T
  0.7504716621312468  0.7496841596017276  0.3123882780147582   T   T   T
  0.2505138198517045  0.7495939555465583  0.3124268158053880   T   T   T
  0.7504347094716479  0.2496959616977534  0.3124248102074176   T   T   T
  0.2506481283840927  0.2496782466763605  0.3124184446513851   T   T   T
  0.3338831511764653  0.3331158107482821  0.3333333678585220   T   T   T
  0.8334643257727663  0.3332262809840856  0.3333496499358688   T   T   T
  0.3337725613424354  0.8331225196743333  0.3331461153101145   T   T   T
  0.8338376534834637  0.8329600569899611  0.3332410935482670   T   T   T
  0.5838779075777580  0.3330912359851652  0.3333545412843719   T   T   T
  0.0839909017975273  0.3329432961214209  0.3331951558609134   T   T   T
  0.5838283782635756  0.8329901230182557  0.3332218504960309   T   T   T
  0.0838770232386068  0.8329206395114213  0.3332614111019652   T   T   T
  0.3338238260203354  0.5828527651835316  0.3332384208848111   T   T   T
  0.8338255410728621  0.5830187574733614  0.3332082291278269   T   T   T
  0.3338370340794725  0.0828986050069602  0.3331538765206332   T   T   T
  0.8338896489653962  0.0828701322115464  0.3331257123191662   T   T   T
  0.5839885160451246  0.5827453710635453  0.3333016359384828   T   T   T
  0.0838604248059625  0.5829708314291011  0.3332837065440373   T   T   T
  0.5839054588588795  0.0828968563953154  0.3331875720990425   T   T   T
  0.0840677160182537  0.0828970659710038  0.3330828260899494   T   T   T
  0.3341631029744150  0.3330969733128484  0.3958023475579964   T   T   T
  0.8333317039778905  0.3332687028518322  0.3958272058375272   T   T   T
  0.3339001542782611  0.8330864088586551  0.3955474651312372   T   T   T
  0.8340319131266511  0.8328140748847161  0.3956836805009516   T   T   T
  0.5841035958268392  0.3329978398397984  0.3958297993303859   T   T   T
  0.0843342842049069  0.3327514944596146  0.3956038913888307   T   T   T
  0.5840090770460122  0.8328611696196688  0.3956514623230944   T   T   T
  0.0841007056205854  0.8327316690360149  0.3957061428675246   T   T   T
  0.3340260540674649  0.5826359024386605  0.3956671879335545   T   T   T
  0.8340176508795096  0.5828932737332906  0.3956338209824679   T   T   T
  0.3340230702237221  0.0826794835726190  0.3955701202625335   T   T   T
  0.8341735684999207  0.0826430914691016  0.3955161456656668   T   T   T
  0.5842057729650847  0.5824799275070731  0.3957591772833098   T   T   T
  0.0840695385250498  0.5828373031833962  0.3957372852133147   T   T   T
  0.5841552939966661  0.0826885722319020  0.3956021756800752   T   T   T
  0.0844633700827586  0.0826833226361927  0.3954596414478146   T   T   T
  0.1674981993433420  0.1661293014413801  0.4165591027367341   T   T   T
  0.6675572847322115  0.1660270996628057  0.4164138708701088   T   T   T
  0.1674799153827280  0.6660690293667173  0.4166856865560504   T   T   T
  0.6673246549514431  0.6661697224970240  0.4165155106692779   T   T   T
  0.4173422022140798  0.1660555009804128  0.4163210767966063   T   T   T
  0.9177657317257371  0.1660112713428035  0.4160663313635808   T   T   T
  0.4172379747566310  0.6663109557979681  0.4162128611558202   T   T   T
  0.9173713608808285  0.6661463884464851  0.4166096597961229   T   T   T
  0.1674692588525630  0.4161781137841487  0.4166808571875507   T   T   T
  0.6668882341195612  0.4163249374196951  0.4173453562875338   T   T   T
  0.1673710772298662  0.9161914575622347  0.4165534975595406   T   T   T
  0.6674029925078102  0.9160877389185558  0.4166152366429117   T   T   T
  0.4176740718532557  0.4162459743260385  0.4169107390992224   T   T   T
  0.9176136149596843  0.4160370816232799  0.4163350340985446   T   T   T
  0.4174019531472268  0.9161041567734927  0.4165999088391885   T   T   T
  0.9174167915161888  0.9161039187998909  0.4165781443018162   T   T   T
  0.1676806614752664  0.1660121604052165  0.4790401602604391   T   T   T
  0.6680692350118633  0.1656443982695492  0.4788028778252880   T   T   T
  0.1677963103440518  0.6658638235741421  0.4791718407695527   T   T   T
  0.6674339321254266  0.6660239398449406  0.4789435788536522   T   T   T
  0.4175361820987646  0.1657407780294449  0.4786825880084322   T   T   T
  0.9182361130520391  0.1656675322537708  0.4783218783622019   T   T   T
  0.4174909624920744  0.6656165508683642  0.4784857723278861   T   T   T
  0.9175275935568408  0.6660157691461919  0.4790789744446613   T   T   T
  0.1677523814556636  0.4160769602340295  0.4791657253136563   T   T   T
  0.6659166266205787  0.4166465702390525  0.4800768321794280   T   T   T
  0.1674906835585830  0.9161001787697032  0.4790143952228192   T   T   T
  0.6675564334949584  0.9159551706898483  0.4790883916660604   T   T   T
  0.4185554261133433  0.4165988042618096  0.4794535134503377   T   T   T
  0.9181281066482612  0.4157240366893902  0.4786845773321744   T   T   T
  0.4175911647477406  0.9158433545980387  0.4790851117339656   T   T   T
  0.9175989058922909  0.9159674000347877  0.4790382429428703   T   T   T
  0.0007657341439185  0.9996206257156501  0.4993147337292569   T   T   T
  0.5008304728068325  0.9993824495721881  0.4994408813617284   T   T   T
  0.0009060431126073  0.4992743310152790  0.4994694382218512   T   T   T
  0.4991567673027788  0.5016273047094586  0.5013629219441711   T   T   T
  0.2508872184728119  0.9993315959651241  0.4994835721036139   T   T   T
  0.7509395120733870  0.9992785971513243  0.4994772669469683   T   T   T
  0.2514645295329956  0.4990648609471151  0.4996180161342352   T   T   T
  0.7516627515778822  0.4991027191646822  0.4990672870424575   T   T   T
  0.0008131112970418  0.2492335010226583  0.4992448207685953   T   T   T
  0.5011653085510233  0.2487966993647674  0.4989130131647954   T   T   T
  0.0009840227318136  0.7492864168641589  0.4995155235557149   T   T   T
  0.5006534700770331  0.7488839045686291  0.4992885821781243   T   T   T
  0.2512022726298682  0.2492482729128156  0.4994323054397469   T   T   T
  0.7523906654409913  0.2480802272326059  0.4991199299145777   T   T   T
  0.2512274200584415  0.7493938443738841  0.4993342592229197   T   T   T
  0.7507959125912151  0.7492157221713711  0.4994961094198658   T   T   T
  0.0001916401690423  0.0007502987165680  0.5393685285602601   T   T   T
  0.5004399384244778  0.0001519212039298  0.5395030082690582   T   T   T
  0.0002948568891341  0.4991030348752119  0.5395338059416872   T   T   T
  0.2507723089599452  0.9994206641222263  0.5395443368100032   T   T   T
  0.7506074250285977  0.9999066581969700  0.5395321550920968   T   T   T
  0.2509285568286330  0.4992532341423512  0.5397139725806852   T   T   T
  0.7547118237604238  0.4997086617103932  0.5390780030950495   T   T   T
  0.9998289548356141  0.2494103148905822  0.5392999128068183   T   T   T
  0.5018975627642561  0.2455410544124135  0.5389334301893811   T   T   T
  0.0007318004597394  0.7494696335719340  0.5395777691226158   T   T   T
  0.5008424680825030  0.7483276496494753  0.5393795433452908   T   T   T
  0.2519702914325563  0.2488304033480446  0.5395116372238391   T   T   T
  0.7577974636077229  0.2419738920775600  0.5390394239801637   T   T   T
  0.2519433647004945  0.7491400863524831  0.5394056883071059   T   T   T
  0.7506349760730089  0.7489909202041503  0.5395721976924150   T   T   T
 
  0.00000000E+00  0.00000000E+00  0.00000000E+00
  0.00000000E+00  0.00000000E+00  0.00000000E+00
  0.00000000E+00  0.00000000E+00  0.00000000E+00
  0.00000000E+00  0.00000000E+00  0.00000000E+00
  0.00000000E+00  0.00000000E+00  0.00000000E+00
  0.00000000E+00  0.00000000E+00  0.00000000E+00
  0.00000000E+00  0.00000000E+00  0.00000000E+00
  0.00000000E+00  0.00000000E+00  0.00000000E+00
  0.00000000E+00  0.00000000E+00  0.00000000E+00
  0.00000000E+00  0.00000000E+00  0.00000000E+00
  0.00000000E+00  0.00000000E+00  0.00000000E+00
  0.00000000E+00  0.00000000E+00  0.00000000E+00
  0.00000000E+00  0.00000000E+00  0.00000000E+00
  0.00000000E+00  0.00000000E+00  0.00000000E+00
  0.00000000E+00  0.00000000E+00  0.00000000E+00
  0.00000000E+00  0.00000000E+00  0.00000000E+00
  0.00000000E+00  0.00000000E+00  0.00000000E+00
  0.00000000E+00  0.00000000E+00  0.00000000E+00
  0.00000000E+00  0.00000000E+00  0.00000000E+00
  0.00000000E+00  0.00000000E+00  0.00000000E+00
  0.00000000E+00  0.00000000E+00  0.00000000E+00
  0.00000000E+00  0.00000000E+00  0.00000000E+00
  0.00000000E+00  0.00000000E+00  0.00000000E+00
  0.00000000E+00  0.00000000E+00  0.00000000E+00
  0.00000000E+00  0.00000000E+00  0.00000000E+00
  0.00000000E+00  0.00000000E+00  0.00000000E+00
  0.00000000E+00  0.00000000E+00  0.00000000E+00
  0.00000000E+00  0.00000000E+00  0.00000000E+00
  0.00000000E+00  0.00000000E+00  0.00000000E+00
  0.00000000E+00  0.00000000E+00  0.00000000E+00
  0.00000000E+00  0.00000000E+00  0.00000000E+00
  0.00000000E+00  0.00000000E+00  0.00000000E+00
  0.00000000E+00  0.00000000E+00  0.00000000E+00
  0.00000000E+00  0.00000000E+00  0.00000000E+00
  0.00000000E+00  0.00000000E+00  0.00000000E+00
  0.00000000E+00  0.00000000E+00  0.00000000E+00
  0.00000000E+00  0.00000000E+00  0.00000000E+00
  0.00000000E+00  0.00000000E+00  0.00000000E+00
  0.00000000E+00  0.00000000E+00  0.00000000E+00
  0.00000000E+00  0.00000000E+00  0.00000000E+00
  0.00000000E+00  0.00000000E+00  0.00000000E+00
  0.00000000E+00  0.00000000E+00  0.00000000E+00
  0.00000000E+00  0.00000000E+00  0.00000000E+00
  0.00000000E+00  0.00000000E+00  0.00000000E+00
  0.00000000E+00  0.00000000E+00  0.00000000E+00
  0.00000000E+00  0.00000000E+00  0.00000000E+00
  0.00000000E+00  0.00000000E+00  0.00000000E+00
  0.00000000E+00  0.00000000E+00  0.00000000E+00
  0.00000000E+00  0.00000000E+00  0.00000000E+00
  0.00000000E+00  0.00000000E+00  0.00000000E+00
  0.00000000E+00  0.00000000E+00  0.00000000E+00
  0.00000000E+00  0.00000000E+00  0.00000000E+00
  0.00000000E+00  0.00000000E+00  0.00000000E+00
  0.00000000E+00  0.00000000E+00  0.00000000E+00
  0.00000000E+00  0.00000000E+00  0.00000000E+00
  0.00000000E+00  0.00000000E+00  0.00000000E+00
  0.00000000E+00  0.00000000E+00  0.00000000E+00
  0.00000000E+00  0.00000000E+00  0.00000000E+00
  0.00000000E+00  0.00000000E+00  0.00000000E+00
  0.00000000E+00  0.00000000E+00  0.00000000E+00
  0.00000000E+00  0.00000000E+00  0.00000000E+00
  0.00000000E+00  0.00000000E+00  0.00000000E+00
  0.00000000E+00  0.00000000E+00  0.00000000E+00
  0.00000000E+00  0.00000000E+00  0.00000000E+00
  0.00000000E+00  0.00000000E+00  0.00000000E+00
  0.00000000E+00  0.00000000E+00  0.00000000E+00
  0.00000000E+00  0.00000000E+00  0.00000000E+00
  0.00000000E+00  0.00000000E+00  0.00000000E+00
  0.00000000E+00  0.00000000E+00  0.00000000E+00
  0.00000000E+00  0.00000000E+00  0.00000000E+00
  0.00000000E+00  0.00000000E+00  0.00000000E+00
  0.00000000E+00  0.00000000E+00  0.00000000E+00
  0.00000000E+00  0.00000000E+00  0.00000000E+00
  0.00000000E+00  0.00000000E+00  0.00000000E+00
  0.00000000E+00  0.00000000E+00  0.00000000E+00
  0.00000000E+00  0.00000000E+00  0.00000000E+00
  0.00000000E+00  0.00000000E+00  0.00000000E+00
  0.00000000E+00  0.00000000E+00  0.00000000E+00
  0.00000000E+00  0.00000000E+00  0.00000000E+00
  0.00000000E+00  0.00000000E+00  0.00000000E+00
  0.00000000E+00  0.00000000E+00  0.00000000E+00
  0.00000000E+00  0.00000000E+00  0.00000000E+00
  0.00000000E+00  0.00000000E+00  0.00000000E+00
  0.00000000E+00  0.00000000E+00  0.00000000E+00
  0.00000000E+00  0.00000000E+00  0.00000000E+00
  0.00000000E+00  0.00000000E+00  0.00000000E+00
  0.00000000E+00  0.00000000E+00  0.00000000E+00
  0.00000000E+00  0.00000000E+00  0.00000000E+00
  0.00000000E+00  0.00000000E+00  0.00000000E+00
  0.00000000E+00  0.00000000E+00  0.00000000E+00
  0.00000000E+00  0.00000000E+00  0.00000000E+00
  0.00000000E+00  0.00000000E+00  0.00000000E+00
  0.00000000E+00  0.00000000E+00  0.00000000E+00
  0.00000000E+00  0.00000000E+00  0.00000000E+00
  0.00000000E+00  0.00000000E+00  0.00000000E+00
  0.00000000E+00  0.00000000E+00  0.00000000E+00
  0.00000000E+00  0.00000000E+00  0.00000000E+00
  0.00000000E+00  0.00000000E+00  0.00000000E+00
  0.00000000E+00  0.00000000E+00  0.00000000E+00
  0.00000000E+00  0.00000000E+00  0.00000000E+00
  0.00000000E+00  0.00000000E+00  0.00000000E+00
  0.00000000E+00  0.00000000E+00  0.00000000E+00
  0.00000000E+00  0.00000000E+00  0.00000000E+00
  0.00000000E+00  0.00000000E+00  0.00000000E+00
  0.00000000E+00  0.00000000E+00  0.00000000E+00
  0.00000000E+00  0.00000000E+00  0.00000000E+00
  0.00000000E+00  0.00000000E+00  0.00000000E+00
  0.00000000E+00  0.00000000E+00  0.00000000E+00
  0.00000000E+00  0.00000000E+00  0.00000000E+00
  0.00000000E+00  0.00000000E+00  0.00000000E+00
  0.00000000E+00  0.00000000E+00  0.00000000E+00
  0.00000000E+00  0.00000000E+00  0.00000000E+00
  0.00000000E+00  0.00000000E+00  0.00000000E+00
  0.00000000E+00  0.00000000E+00  0.00000000E+00
  0.00000000E+00  0.00000000E+00  0.00000000E+00
  0.00000000E+00  0.00000000E+00  0.00000000E+00
  0.00000000E+00  0.00000000E+00  0.00000000E+00
  0.00000000E+00  0.00000000E+00  0.00000000E+00
  0.00000000E+00  0.00000000E+00  0.00000000E+00
  0.00000000E+00  0.00000000E+00  0.00000000E+00
  0.00000000E+00  0.00000000E+00  0.00000000E+00
  0.00000000E+00  0.00000000E+00  0.00000000E+00
  0.00000000E+00  0.00000000E+00  0.00000000E+00
  0.00000000E+00  0.00000000E+00  0.00000000E+00
  0.00000000E+00  0.00000000E+00  0.00000000E+00
  0.00000000E+00  0.00000000E+00  0.00000000E+00
  0.00000000E+00  0.00000000E+00  0.00000000E+00
  0.00000000E+00  0.00000000E+00  0.00000000E+00
  0.00000000E+00  0.00000000E+00  0.00000000E+00
  0.00000000E+00  0.00000000E+00  0.00000000E+00
  0.00000000E+00  0.00000000E+00  0.00000000E+00
  0.00000000E+00  0.00000000E+00  0.00000000E+00
  0.00000000E+00  0.00000000E+00  0.00000000E+00
  0.00000000E+00  0.00000000E+00  0.00000000E+00
  0.00000000E+00  0.00000000E+00  0.00000000E+00
  0.00000000E+00  0.00000000E+00  0.00000000E+00
  0.00000000E+00  0.00000000E+00  0.00000000E+00
  0.00000000E+00  0.00000000E+00  0.00000000E+00
  0.00000000E+00  0.00000000E+00  0.00000000E+00
  0.00000000E+00  0.00000000E+00  0.00000000E+00
  0.00000000E+00  0.00000000E+00  0.00000000E+00
  0.00000000E+00  0.00000000E+00  0.00000000E+00
  0.00000000E+00  0.00000000E+00  0.00000000E+00
  0.00000000E+00  0.00000000E+00  0.00000000E+00
  0.00000000E+00  0.00000000E+00  0.00000000E+00
  0.00000000E+00  0.00000000E+00  0.00000000E+00
  0.00000000E+00  0.00000000E+00  0.00000000E+00
  0.00000000E+00  0.00000000E+00  0.00000000E+00
  0.00000000E+00  0.00000000E+00  0.00000000E+00
  0.00000000E+00  0.00000000E+00  0.00000000E+00
  0.00000000E+00  0.00000000E+00  0.00000000E+00
  0.00000000E+00  0.00000000E+00  0.00000000E+00
  0.00000000E+00  0.00000000E+00  0.00000000E+00
  0.00000000E+00  0.00000000E+00  0.00000000E+00
  0.00000000E+00  0.00000000E+00  0.00000000E+00
  0.00000000E+00  0.00000000E+00  0.00000000E+00
  0.00000000E+00  0.00000000E+00  0.00000000E+00
  0.00000000E+00  0.00000000E+00  0.00000000E+00
  0.00000000E+00  0.00000000E+00  0.00000000E+00
  0.00000000E+00  0.00000000E+00  0.00000000E+00
  0.00000000E+00  0.00000000E+00  0.00000000E+00
  0.00000000E+00  0.00000000E+00  0.00000000E+00
  0.00000000E+00  0.00000000E+00  0.00000000E+00
  0.00000000E+00  0.00000000E+00  0.00000000E+00
  0.00000000E+00  0.00000000E+00  0.00000000E+00
  0.00000000E+00  0.00000000E+00  0.00000000E+00
  0.00000000E+00  0.00000000E+00  0.00000000E+00
  0.00000000E+00  0.00000000E+00  0.00000000E+00
  0.00000000E+00  0.00000000E+00  0.00000000E+00
  0.00000000E+00  0.00000000E+00  0.00000000E+00
  0.00000000E+00  0.00000000E+00  0.00000000E+00
  0.00000000E+00  0.00000000E+00  0.00000000E+00
  0.00000000E+00  0.00000000E+00  0.00000000E+00
  0.00000000E+00  0.00000000E+00  0.00000000E+00
  0.00000000E+00  0.00000000E+00  0.00000000E+00
  0.00000000E+00  0.00000000E+00  0.00000000E+00
  0.00000000E+00  0.00000000E+00  0.00000000E+00
  0.00000000E+00  0.00000000E+00  0.00000000E+00
  0.00000000E+00  0.00000000E+00  0.00000000E+00
  0.00000000E+00  0.00000000E+00  0.00000000E+00
  0.00000000E+00  0.00000000E+00  0.00000000E+00
  0.00000000E+00  0.00000000E+00  0.00000000E+00
  0.00000000E+00  0.00000000E+00  0.00000000E+00
  0.00000000E+00  0.00000000E+00  0.00000000E+00
  0.00000000E+00  0.00000000E+00  0.00000000E+00
  0.00000000E+00  0.00000000E+00  0.00000000E+00
  0.00000000E+00  0.00000000E+00  0.00000000E+00
  0.00000000E+00  0.00000000E+00  0.00000000E+00
  0.00000000E+00  0.00000000E+00  0.00000000E+00
  0.00000000E+00  0.00000000E+00  0.00000000E+00
  0.00000000E+00  0.00000000E+00  0.00000000E+00
  0.00000000E+00  0.00000000E+00  0.00000000E+00
  0.00000000E+00  0.00000000E+00  0.00000000E+00
  0.00000000E+00  0.00000000E+00  0.00000000E+00
  0.00000000E+00  0.00000000E+00  0.00000000E+00
  0.00000000E+00  0.00000000E+00  0.00000000E+00
  0.00000000E+00  0.00000000E+00  0.00000000E+00
  0.00000000E+00  0.00000000E+00  0.00000000E+00
  0.00000000E+00  0.00000000E+00  0.00000000E+00
  0.00000000E+00  0.00000000E+00  0.00000000E+00
  0.00000000E+00  0.00000000E+00  0.00000000E+00
  0.00000000E+00  0.00000000E+00  0.00000000E+00
  0.00000000E+00  0.00000000E+00  0.00000000E+00
  0.00000000E+00  0.00000000E+00  0.00000000E+00
  0.00000000E+00  0.00000000E+00  0.00000000E+00
  0.00000000E+00  0.00000000E+00  0.00000000E+00
  0.00000000E+00  0.00000000E+00  0.00000000E+00
  0.00000000E+00  0.00000000E+00  0.00000000E+00
  0.00000000E+00  0.00000000E+00  0.00000000E+00
  0.00000000E+00  0.00000000E+00  0.00000000E+00
  0.00000000E+00  0.00000000E+00  0.00000000E+00
  0.00000000E+00  0.00000000E+00  0.00000000E+00
  0.00000000E+00  0.00000000E+00  0.00000000E+00
  0.00000000E+00  0.00000000E+00  0.00000000E+00
  0.00000000E+00  0.00000000E+00  0.00000000E+00
  0.00000000E+00  0.00000000E+00  0.00000000E+00
  0.00000000E+00  0.00000000E+00  0.00000000E+00
  0.00000000E+00  0.00000000E+00  0.00000000E+00
  0.00000000E+00  0.00000000E+00  0.00000000E+00
  0.00000000E+00  0.00000000E+00  0.00000000E+00
  0.00000000E+00  0.00000000E+00  0.00000000E+00
  0.00000000E+00  0.00000000E+00  0.00000000E+00
  0.00000000E+00  0.00000000E+00  0.00000000E+00
  0.00000000E+00  0.00000000E+00  0.00000000E+00
  0.00000000E+00  0.00000000E+00  0.00000000E+00
  0.00000000E+00  0.00000000E+00  0.00000000E+00
  0.00000000E+00  0.00000000E+00  0.00000000E+00
  0.00000000E+00  0.00000000E+00  0.00000000E+00
  0.00000000E+00  0.00000000E+00  0.00000000E+00