4x4_si_surface_from540eV_1x1x1conv      
   1.00000000000000     
    15.3329877853000003    0.0000000000000000    0.0000000000000000
     7.6664938927000001   13.2787569380000008    0.0000000000000000
     0.0000000000000000    0.0000000000000000   41.5579948425000012
   C    H    H    Si
    14     9    31   192
Selective dynamics
Direct
  0.4898737877391789  0.4312055534276338  0.5717887278525661   T   T   T
  0.3975906934994022  0.4886219361825355  0.5560238405017532   T   T   T
  0.5772907942366333  0.4237793171152485  0.5588321376515860   T   T   T
  0.3965771628155795  0.5228869241098194  0.5234205500110806   T   T   T
  0.4874744518087957  0.4991167907958368  0.5071493479822854   T   T   T
  0.5742239638938393  0.4633639541369575  0.5269030862757232   T   T   T
  0.6665199239326332  0.3878208979029849  0.5777903706252278   T   T   T
  0.7445716803889354  0.4006833476375307  0.5678374799469108   T   T   T
  0.7374400762307561  0.4489124173875727  0.5380308686475551   T   T   T
  0.6561301337039185  0.4765390872115003  0.5182411731662085   T   T   T
  0.3048773886919516  0.5201743997960541  0.5724569195210859   T   T   T
  0.2148346431629914  0.5898646805490905  0.5590566035679287   T   T   T
  0.2134632038857687  0.6267728675256479  0.5277418675847372   T   T   T
  0.3011074777644406  0.5903820706349447  0.5104127123401982   T   T   T
  0.3072358988640682  0.4920453066427238  0.5967788064815917   T   T   T
  0.1448076380138935  0.6176151245752198  0.5724355316131170   T   T   T
  0.1422490714555128  0.6831791077041123  0.5170899075801669   T   T   T
  0.2986290068766290  0.6182210895574995  0.4861607930922413   T   T   T
  0.4915054582354869  0.4010516173026533  0.5957854579475067   T   T   T
  0.6483059373884599  0.5191160647068608  0.4964913235956026   T   T   T
  0.7955162712516056  0.4667184557922304  0.5312470827794608   T   T   T
  0.6689462688879907  0.3550355914280709  0.6013119560003165   T   T   T
  0.8100140851820882  0.3778235759627985  0.5832331749050399   T   T   T
  0.0003891923810979  0.9998995040871231  0.0205864038027717   T   T   T
  0.5000585797760624  0.9999498130825069  0.0205883341477323   T   T   T
  0.0004023922333224  0.4997803941158652  0.0205754876451400   T   T   T
  0.5002955398487486  0.4998686132878347  0.0205715090294146   T   T   T
  0.2503440949098426  0.0000049418437085  0.0206116679467372   T   T   T
  0.7504152883340499  0.9997989111603145  0.0205569148744162   T   T   T
  0.2503292994119788  0.4998824477931954  0.0205730904066211   T   T   T
  0.7503363168366779  0.4997303524073679  0.0205772506568082   T   T   T
  0.0003131444799605  0.2498246482209315  0.0205979720232504   T   T   T
  0.5002971667778621  0.2499113091866035  0.0205595434716620   T   T   T
  0.0003573804569836  0.7497959003431202  0.0205701614434001   T   T   T
  0.5003050831502179  0.7498322882494040  0.0205655750789006   T   T   T
  0.2503624951073182  0.2496908107074349  0.0206007266871871   T   T   T
  0.7503691032326669  0.2498888945504973  0.0205774008709007   T   T   T
  0.2503603353745040  0.7498221723731867  0.0205719642075733   T   T   T
  0.7503254683685143  0.7498771992752390  0.0205577300584704   T   T   T
  0.0038666094582111  0.9991094835603475  0.4871455343223277   T   T   T
  0.5000021963249262  0.0009894020693159  0.4877631037271952   T   T   T
  0.0020834640335470  0.4956974705143092  0.4862942878577964   T   T   T
  0.2468063367325269  0.9995033309079698  0.4871444049218554   T   T   T
  0.7502846495493488  0.0001187423741005  0.4878080537634616   T   T   T
  0.2372099660861735  0.4862786848927320  0.4855679260146944   T   T   T
  0.7753848775493944  0.5110097023266313  0.4836717865095159   T   T   T
  0.9972437123420770  0.2563524834605703  0.4871044577781022   T   T   T
  0.5011240791134339  0.2478279040925969  0.4886492798704846   T   T   T
  0.9963418742890654  0.7526629555417781  0.4874617368473103   T   T   T
  0.5057294202445850  0.7521354679065079  0.4880840265860675   T   T   T
  0.2467168587548550  0.2571103573930997  0.4870116869966460   T   T   T
  0.7525925084433371  0.2452476031223991  0.4890555018695660   T   T   T
  0.2339831771916102  0.7761019066041295  0.4861872083371709   T   T   T
  0.7490361035418767  0.7485799260580752  0.4872634903483284   T   T   T
  0.0003389392529338  0.9998576518145258  0.0567949920348412   F   F   F 
  0.5002677007797712  0.9998745480529914  0.0567967333791772   F   F   F 
  0.0003338290366289  0.4998422683592670  0.0567843162062551   F   F   F 
  0.5003201917370869  0.4998479368700211  0.0567800820576457   F   F   F 
  0.2503294978626227  0.9998910074970345  0.0568194017783762   F   F   F 
  0.7503513729266896  0.9998311060659577  0.0567647874501065   F   F   F 
  0.2503275702845137  0.4998589444349433  0.0567812818490526   F   F   F 
  0.7503228135642083  0.4998225090460675  0.0567854024653359   F   F   F 
  0.0003171574774141  0.2498445836931935  0.0568061874392075   F   F   F 
  0.5003291263829017  0.2498546185027450  0.0567677872463071   F   F   F 
  0.0003349866098083  0.7498297224915385  0.0567780074150764   F   F   F 
  0.5003277600657973  0.7498386935293418  0.0567736316444668   F   F   F 
  0.2503312141359404  0.2498196099342636  0.0568088348587371   F   F   F 
  0.7503312386909499  0.2498511336725378  0.0567857885190424   F   F   F 
  0.2503347071239148  0.7498409440063334  0.0567802391857696   F   F   F 
  0.7503241428286163  0.7498555308922378  0.0567654063327695   F   F   F 
  0.8336660924102238  0.8331723147305871  0.0752171917679468   F   F   F 
  0.3336641046538141  0.8331818625992451  0.0752178593491347   F   F   F 
  0.8336520497035337  0.3331745091117377  0.0752466751488637   F   F   F 
  0.3336673210298356  0.3331861464632601  0.0752147363700717   F   F   F 
  0.0836647261827595  0.8331692175458763  0.0752181918608257   F   F   F 
  0.5836586768818744  0.8331786943649193  0.0752100607184596   F   F   F 
  0.0836536395191871  0.3331816674719081  0.0752410548344879   F   F   F 
  0.5836559939111329  0.3331819849139982  0.0752248223507207   F   F   F 
  0.8336520965917655  0.0831784237705858  0.0752216126880384   F   F   F 
  0.3336507906520756  0.0831986148010205  0.0752923103903232   F   F   F 
  0.8336430112363845  0.5831909263680746  0.0752063993578485   F   F   F 
  0.3336657506928991  0.5831822214249617  0.0752316623607575   F   F   F 
  0.0836612567178359  0.0831878330897534  0.0752568595180821   F   F   F 
  0.5836755128901759  0.0831746717124622  0.0751992649177902   F   F   F 
  0.0836681242987627  0.5831761037839865  0.0752291646520805   F   F   F 
  0.5836496343697890  0.5831804078576612  0.0752233763799403   F   F   F 
  0.8336417455323721  0.8331786901125454  0.1317143904613066   F   F   F 
  0.3336466237457953  0.8331620569986790  0.1317099632361342   F   F   F 
  0.8336281439099014  0.3331792802658118  0.1317391306716586   F   F   F 
  0.3336537871800377  0.3331858751705466  0.1317055963006891   F   F   F 
  0.0836136234563919  0.8331731260334799  0.1317116858918873   F   F   F 
  0.5836722008751317  0.8331715663107058  0.1317037818495934   F   F   F 
  0.0835858662829549  0.3332520123184209  0.1317367232298123   F   F   F 
  0.5836344522812242  0.3331631571199669  0.1317213348784085   F   F   F 
  0.8336005121453530  0.0831892293994520  0.1317134524681294   F   F   F 
  0.3336471592940715  0.0832289170745567  0.1317882432492004   F   F   F 
  0.8336105227389542  0.5832204825851788  0.1316983401152107   F   F   F 
  0.3336398614324019  0.5831783767189791  0.1317261842128486   F   F   F 
  0.0835959259261673  0.0832024187427373  0.1317529976655365   F   F   F 
  0.5836700890284761  0.0831828921537252  0.1316918153040677   F   F   F 
  0.0836210832250127  0.5831995946457809  0.1317228675589110   F   F   F 
  0.5836272764392731  0.5831933416188472  0.1317173893211064   F   F   F 
  0.6669671512528696  0.6665188736087526  0.1505960873935603   F   F   F 
  0.1669705405578647  0.6665167067519997  0.1506025636628331   F   F   F 
  0.6669556105864812  0.1665097251584928  0.1506100722903264   F   F   F 
  0.1668990708243523  0.1665925767398867  0.1506206972108609   F   F   F 
  0.9169523023198530  0.6665117401924316  0.1506010033281345   F   F   F 
  0.4169665524078621  0.6665196911247872  0.1506064177489101   F   F   F 
  0.9169103320322637  0.1665020230417171  0.1506189784464063   F   F   F 
  0.4170590514338063  0.1665585387207360  0.1506118640844050   F   F   F 
  0.6669641022209892  0.9165392617694457  0.1505865286003239   F   F   F 
  0.1669750744282534  0.9164821597934878  0.1505868818864540   F   F   F 
  0.6669389710933584  0.4165293607995311  0.1505986856265592   F   F   F 
  0.1669954212793918  0.4165271425038171  0.1505954847096534   F   F   F 
  0.9169543773014535  0.9165342431187831  0.1505963097904456   F   F   F 
  0.4170099686764014  0.9164636213478742  0.1505906800141610   F   F   F 
  0.9169009405352736  0.4165975118899936  0.1506021916763136   F   F   F 
  0.4169649912522483  0.4165089894627532  0.1506042005536416   F   F   F
  0.6669127706056912  0.6665021463472200  0.2070540225198769   T   T   T 
  0.1669138316313195  0.6664900970265819  0.2070590756991990   T   T   T 
  0.6669035723175156  0.1665057964629781  0.2070660538992044   T   T   T 
  0.1668408771840220  0.1666082156883917  0.2070816946923273   T   T   T 
  0.9169252874870111  0.6664983809345202  0.2070590756991990   T   T   T 
  0.4169248964164609  0.6664788007884823  0.2070653320164482   T   T   T 
  0.9169248432981192  0.1665027841328168  0.2070747164923219   T   T   T 
  0.4169644500674039  0.1665140803709164  0.2070674976647240   T   T   T 
  0.6669177400176807  0.9164826238496531  0.2070424723957274   T   T   T 
  0.1669495152207645  0.9164404512274231  0.2070463224371082   T   T   T 
  0.6669161662049774  0.4164892862955725  0.2070545037750549   T   T   T 
  0.1669205890675940  0.4164757308098572  0.2070557069129819   T   T   T 
  0.9169485992834439  0.9164630437036152  0.2070523381267719   T   T   T 
  0.4170101806186111  0.9164043032655158  0.2070482474577986   T   T   T 
  0.9169387145283565  0.4164915455431952  0.2070607600923040   T   T   T 
  0.4169202098956717  0.4164794962225571  0.2070634069957507   T   T   T 
  0.5002798030543261  0.4997937706810376  0.2258807248900325   T   T   T 
  0.0002868940431497  0.4998231409000908  0.2258812061452034   T   T   T 
  0.5002863385191674  0.9998006637208334  0.2258552183658580   T   T   T 
  0.0003208701956581  0.9997660219240032  0.2258609934279363   T   T   T 
  0.7502816488517183  0.4998178693223068  0.2258542558555092   T   T   T 
  0.2502547936954755  0.4997990422588146  0.2258679716279417   T   T   T 
  0.7502884546610247  0.9997720465843187  0.2258436682417013   T   T   T 
  0.2503219556666494  0.9998112068763874  0.2257789394209269   T   T   T 
  0.5003186269023061  0.7497313224787021  0.2259136908693833   T   T   T 
  0.0002840642262640  0.7497983468247469  0.2258920343865967   T   T   T 
  0.5002940353061192  0.2498479349754348  0.2259329410763087   T   T   T 
  0.0001670708790869  0.2498923668452804  0.2259490631246024   T   T   T 
  0.7502689748929185  0.7498231985485546  0.2258665278624221   T   T   T 
  0.2502866307688763  0.7497727420183935  0.2258932375245308   T   T   T 
  0.7502544582019368  0.2498283548293969  0.2258879437176233   T   T   T 
  0.2503486542705033  0.2498230832516199  0.2258978094486750   T   T   T 
  0.5004932546092391  0.4996303517699019  0.2823062095383406   T   T   T 
  0.0005074583600262  0.4996898452905469  0.2823086158142019   T   T   T 
  0.5005132644564512  0.9996259485716052  0.2822696341451874   T   T   T 
  0.0005904244587924  0.9995634427207989  0.2822778154831269   T   T   T 
  0.7504622206316327  0.4997071661889620  0.2822669872417336   T   T   T 
  0.2504447592165420  0.4996552034937167  0.2822855155658957   T   T   T 
  0.7505111990631619  0.9995769982065141  0.2822511058210253   T   T   T 
  0.2506020458414824  0.9996071215081059  0.2821526891381296   T   T   T 
  0.5005670697608693  0.7495031384691515  0.2823555381935776   T   T   T 
  0.0005008505837054  0.7496386933263111  0.2823235347245685   T   T   T 
  0.5005387701827573  0.2497432565024056  0.2823824884832717   T   T   T 
  0.0002253319410030  0.2498501942230504  0.2824029418281242   T   T   T 
  0.7504619455002910  0.7496929152691720  0.2822869593314152   T   T   T 
  0.2505180283763622  0.7495799528882046  0.2823244972349173   T   T   T 
  0.7504109530721479  0.2497071085404912  0.2823165565245560   T   T   T 
  0.2506635300791658  0.2497033431277913  0.2823285879038835   T   T   T 
  0.3339113537344005  0.3331381107926390  0.3012289223155165   T   T   T 
  0.8334050589291593  0.3332540855037678  0.3012380661638048   T   T   T 
  0.3338059435215115  0.8330636709181434  0.3010592798670118   T   T   T 
  0.8338401711784442  0.8329529677847916  0.3011336337912454   T   T   T 
  0.5838723081343105  0.3331057282434315  0.3012407130672514   T   T   T 
  0.0839862484965863  0.3329566179005568  0.3010871926670475   T   T   T 
  0.5838289243960375  0.8329815849213063  0.3011199180188200   T   T   T 
  0.0838857188324837  0.8329115482451073  0.3011569746671441   T   T   T 
  0.3338456386836413  0.5828399477553603  0.3011297837498645   T   T   T 
  0.8338185258127879  0.5830267122252195  0.3010968177705067   T   T   T 
  0.3338450989036943  0.0828993259790636  0.3010460453497501   T   T   T 
  0.8338821008836348  0.0828835112457256  0.3010227044738585   T   T   T 
  0.5839839903266224  0.5827345161997854  0.3011858499775286   T   T   T 
  0.0838624466172320  0.5829755026125198  0.3011699685568132   T   T   T 
  0.5839005052704920  0.0829076098870019  0.3010831019980742   T   T   T 
  0.0840685265804382  0.0828955605663637  0.3009803540186269   T   T   T 
  0.3348825128777204  0.3346632966381838  0.3580390372235747   T   T   T
  0.8298707428926664  0.3353273844905958  0.3581840623787343   T   T   T
  0.3341950905450282  0.8326239903694532  0.3578342295986258   T   T   T
  0.8331198980645245  0.8341748694291810  0.3576359845122609   T   T   T
  0.5829421417629069  0.3351937442138560  0.3582927391351179   T   T   T
  0.0843817468106122  0.3320913110941284  0.3567730217641152   T   T   T
  0.5829265546469879  0.8350065131129941  0.3574016037527730   T   T   T
  0.0829124280061539  0.8336426094674400  0.3575754058735067   T   T   T
  0.3337500525767171  0.5839503413006111  0.3580635731763188   T   T   T
  0.8331009198143551  0.5842127015069363  0.3573721090616985   T   T   T
  0.3334926801250692  0.0839946767387529  0.3576348640350048   T   T   T
  0.8326166178856064  0.0844905509687095  0.3575247695976967   T   T   T
  0.5820705563234121  0.5838244603133306  0.3580564381255787   T   T   T
  0.0832579401000515  0.5844522931152777  0.3575470952419065   T   T   T
  0.5835234322137057  0.0844024692253875  0.3576427129705931   T   T   T
  0.0819730964210178  0.0858892116435208  0.3572082456742268   T   T   T
  0.1669624402980223  0.1669300893395387  0.3764513036440163   T   T   T
  0.6662612007242406  0.1681890484240222  0.3768845297907780   T   T   T
  0.1669151778640352  0.6671983975793657  0.3769644874940504   T   T   T
  0.6655705570391325  0.6682928867502168  0.3755628382845362   T   T   T
  0.4168817800641263  0.1675835416923671  0.3766390617752081   T   T   T
  0.9154328111497086  0.1681799301831783  0.3765873557266065   T   T   T
  0.4165764835233177  0.6664955774838244  0.3782784340768887   T   T   T
  0.9164793752522659  0.6674435646669773  0.3763617261603150   T   T   T
  0.1662732875924516  0.4165010373523068  0.3747356849090362   T   T   T
  0.6635134340048608  0.4195652180209705  0.3793044688441007   T   T   T
  0.1657378998709411  0.9189216181852899  0.3749017061287262   T   T   T
  0.6665010097604103  0.9178393166391562  0.3765573369368855   T   T   T
  0.4173871659368240  0.4188403893951861  0.3783917982453929   T   T   T
  0.9179094336338128  0.4161093610330269  0.3745968342616435   T   T   T
  0.4165501392429320  0.9173051817317275  0.3765607919186333   T   T   T
  0.9161434968805648  0.9179406759047435  0.3764092454848624   T   T   T
  0.1666557138106566  0.1675181047399700  0.4329385735557169   T   T   T
  0.6658213110751723  0.1693218268094304  0.4335224596085940   T   T   T
  0.1659801637210748  0.6675911247301344  0.4336589350860446   T   T   T
  0.6658199493432749  0.6695965156149875  0.4316270989607288   T   T   T
  0.4164179767152935  0.1686848191592527  0.4331859519667272   T   T   T
  0.9141781671940851  0.1698814868279074  0.4331649863921415   T   T   T
  0.4151247224242050  0.6678006596428430  0.4357203551390783   T   T   T
  0.9160346203649923  0.6674908399413799  0.4327944963170290   T   T   T
  0.1653052599259508  0.4162568460506145  0.4304045356712312   T   T   T
  0.6611082030056751  0.4231220241207984  0.4372914429471002   T   T   T
  0.1631743368642183  0.9226036327292193  0.4307365551221530   T   T   T
  0.6662966746536725  0.9184106991773543  0.4330771470568746   T   T   T
  0.4175698841638226  0.4207565418735487  0.4357805572805472   T   T   T
  0.9200617764695291  0.4157941427832764  0.4302894960461255   T   T   T
  0.4167941216032698  0.9177701732527663  0.4331018953128186   T   T   T
  0.9158244724413971  0.9184755801261023  0.4328849235391423   T   T   T
 -0.0011989074055601  0.0025962655860868  0.4509705933124568   T   T   T
  0.4995777606731265  0.0017781638941366  0.4515519101627707   T   T   T
  0.0004331671468681  0.4999616738623950  0.4501000883015356   T   T   T
  0.4948162955419992  0.5061377408677304  0.4604450793585823   T   T   T
  0.2493719088201232  0.0007824237538037  0.4509532241539165   T   T   T
  0.7493817900442730  0.0020062906551667  0.4515776915517856   T   T   T
  0.2469433075905181  0.4975007003078497  0.4502089061382896   T   T   T
  0.7557671405794487  0.5026824750455328  0.4487919671382442   T   T   T
 -0.0004728945169582  0.2518555410959098  0.4509059749383691   T   T   T
  0.4993465851258632  0.2519590787911615  0.4524414112696812   T   T   T
 -0.0016057200461783  0.7517045214817070  0.4512328906864450   T   T   T
  0.5008380949330382  0.7513387579752865  0.4519035905246552   T   T   T
  0.2489622884122371  0.2521407845698438  0.4508311482038686   T   T   T
  0.7485105621335658  0.2528407820548637  0.4529233292118394   T   T   T
  0.2441221134565191  0.7594086446345656  0.4504510202557515   T   T   T
  0.7492364478899191  0.7513305456667646  0.4510514216127776   T   T   T
 
  0.00000000E+00  0.00000000E+00  0.00000000E+00
  0.00000000E+00  0.00000000E+00  0.00000000E+00
  0.00000000E+00  0.00000000E+00  0.00000000E+00
  0.00000000E+00  0.00000000E+00  0.00000000E+00
  0.00000000E+00  0.00000000E+00  0.00000000E+00
  0.00000000E+00  0.00000000E+00  0.00000000E+00
  0.00000000E+00  0.00000000E+00  0.00000000E+00
  0.00000000E+00  0.00000000E+00  0.00000000E+00
  0.00000000E+00  0.00000000E+00  0.00000000E+00
  0.00000000E+00  0.00000000E+00  0.00000000E+00
  0.00000000E+00  0.00000000E+00  0.00000000E+00
  0.00000000E+00  0.00000000E+00  0.00000000E+00
  0.00000000E+00  0.00000000E+00  0.00000000E+00
  0.00000000E+00  0.00000000E+00  0.00000000E+00
  0.00000000E+00  0.00000000E+00  0.00000000E+00
  0.00000000E+00  0.00000000E+00  0.00000000E+00
  0.00000000E+00  0.00000000E+00  0.00000000E+00
  0.00000000E+00  0.00000000E+00  0.00000000E+00
  0.00000000E+00  0.00000000E+00  0.00000000E+00
  0.00000000E+00  0.00000000E+00  0.00000000E+00
  0.00000000E+00  0.00000000E+00  0.00000000E+00
  0.00000000E+00  0.00000000E+00  0.00000000E+00
  0.00000000E+00  0.00000000E+00  0.00000000E+00
  0.00000000E+00  0.00000000E+00  0.00000000E+00
  0.00000000E+00  0.00000000E+00  0.00000000E+00
  0.00000000E+00  0.00000000E+00  0.00000000E+00
  0.00000000E+00  0.00000000E+00  0.00000000E+00
  0.00000000E+00  0.00000000E+00  0.00000000E+00
  0.00000000E+00  0.00000000E+00  0.00000000E+00
  0.00000000E+00  0.00000000E+00  0.00000000E+00
  0.00000000E+00  0.00000000E+00  0.00000000E+00
  0.00000000E+00  0.00000000E+00  0.00000000E+00
  0.00000000E+00  0.00000000E+00  0.00000000E+00
  0.00000000E+00  0.00000000E+00  0.00000000E+00
  0.00000000E+00  0.00000000E+00  0.00000000E+00
  0.00000000E+00  0.00000000E+00  0.00000000E+00
  0.00000000E+00  0.00000000E+00  0.00000000E+00
  0.00000000E+00  0.00000000E+00  0.00000000E+00
  0.00000000E+00  0.00000000E+00  0.00000000E+00
  0.00000000E+00  0.00000000E+00  0.00000000E+00
  0.00000000E+00  0.00000000E+00  0.00000000E+00
  0.00000000E+00  0.00000000E+00  0.00000000E+00
  0.00000000E+00  0.00000000E+00  0.00000000E+00
  0.00000000E+00  0.00000000E+00  0.00000000E+00
  0.00000000E+00  0.00000000E+00  0.00000000E+00
  0.00000000E+00  0.00000000E+00  0.00000000E+00
  0.00000000E+00  0.00000000E+00  0.00000000E+00
  0.00000000E+00  0.00000000E+00  0.00000000E+00
  0.00000000E+00  0.00000000E+00  0.00000000E+00
  0.00000000E+00  0.00000000E+00  0.00000000E+00
  0.00000000E+00  0.00000000E+00  0.00000000E+00
  0.00000000E+00  0.00000000E+00  0.00000000E+00
  0.00000000E+00  0.00000000E+00  0.00000000E+00
  0.00000000E+00  0.00000000E+00  0.00000000E+00
  0.00000000E+00  0.00000000E+00  0.00000000E+00
  0.00000000E+00  0.00000000E+00  0.00000000E+00
  0.00000000E+00  0.00000000E+00  0.00000000E+00
  0.00000000E+00  0.00000000E+00  0.00000000E+00
  0.00000000E+00  0.00000000E+00  0.00000000E+00
  0.00000000E+00  0.00000000E+00  0.00000000E+00
  0.00000000E+00  0.00000000E+00  0.00000000E+00
  0.00000000E+00  0.00000000E+00  0.00000000E+00
  0.00000000E+00  0.00000000E+00  0.00000000E+00
  0.00000000E+00  0.00000000E+00  0.00000000E+00
  0.00000000E+00  0.00000000E+00  0.00000000E+00
  0.00000000E+00  0.00000000E+00  0.00000000E+00
  0.00000000E+00  0.00000000E+00  0.00000000E+00
  0.00000000E+00  0.00000000E+00  0.00000000E+00
  0.00000000E+00  0.00000000E+00  0.00000000E+00
  0.00000000E+00  0.00000000E+00  0.00000000E+00
  0.00000000E+00  0.00000000E+00  0.00000000E+00
  0.00000000E+00  0.00000000E+00  0.00000000E+00
  0.00000000E+00  0.00000000E+00  0.00000000E+00
  0.00000000E+00  0.00000000E+00  0.00000000E+00
  0.00000000E+00  0.00000000E+00  0.00000000E+00
  0.00000000E+00  0.00000000E+00  0.00000000E+00
  0.00000000E+00  0.00000000E+00  0.00000000E+00
  0.00000000E+00  0.00000000E+00  0.00000000E+00
  0.00000000E+00  0.00000000E+00  0.00000000E+00
  0.00000000E+00  0.00000000E+00  0.00000000E+00
  0.00000000E+00  0.00000000E+00  0.00000000E+00
  0.00000000E+00  0.00000000E+00  0.00000000E+00
  0.00000000E+00  0.00000000E+00  0.00000000E+00
  0.00000000E+00  0.00000000E+00  0.00000000E+00
  0.00000000E+00  0.00000000E+00  0.00000000E+00
  0.00000000E+00  0.00000000E+00  0.00000000E+00
  0.00000000E+00  0.00000000E+00  0.00000000E+00
  0.00000000E+00  0.00000000E+00  0.00000000E+00
  0.00000000E+00  0.00000000E+00  0.00000000E+00
  0.00000000E+00  0.00000000E+00  0.00000000E+00
  0.00000000E+00  0.00000000E+00  0.00000000E+00
  0.00000000E+00  0.00000000E+00  0.00000000E+00
  0.00000000E+00  0.00000000E+00  0.00000000E+00
  0.00000000E+00  0.00000000E+00  0.00000000E+00
  0.00000000E+00  0.00000000E+00  0.00000000E+00
  0.00000000E+00  0.00000000E+00  0.00000000E+00
  0.00000000E+00  0.00000000E+00  0.00000000E+00
  0.00000000E+00  0.00000000E+00  0.00000000E+00
  0.00000000E+00  0.00000000E+00  0.00000000E+00
  0.00000000E+00  0.00000000E+00  0.00000000E+00
  0.00000000E+00  0.00000000E+00  0.00000000E+00
  0.00000000E+00  0.00000000E+00  0.00000000E+00
  0.00000000E+00  0.00000000E+00  0.00000000E+00
  0.00000000E+00  0.00000000E+00  0.00000000E+00
  0.00000000E+00  0.00000000E+00  0.00000000E+00
  0.00000000E+00  0.00000000E+00  0.00000000E+00
  0.00000000E+00  0.00000000E+00  0.00000000E+00
  0.00000000E+00  0.00000000E+00  0.00000000E+00
  0.00000000E+00  0.00000000E+00  0.00000000E+00
  0.00000000E+00  0.00000000E+00  0.00000000E+00
  0.00000000E+00  0.00000000E+00  0.00000000E+00
  0.00000000E+00  0.00000000E+00  0.00000000E+00
  0.00000000E+00  0.00000000E+00  0.00000000E+00
  0.00000000E+00  0.00000000E+00  0.00000000E+00
  0.00000000E+00  0.00000000E+00  0.00000000E+00
  0.00000000E+00  0.00000000E+00  0.00000000E+00
  0.00000000E+00  0.00000000E+00  0.00000000E+00
  0.00000000E+00  0.00000000E+00  0.00000000E+00
  0.00000000E+00  0.00000000E+00  0.00000000E+00
  0.00000000E+00  0.00000000E+00  0.00000000E+00
  0.00000000E+00  0.00000000E+00  0.00000000E+00
  0.00000000E+00  0.00000000E+00  0.00000000E+00
  0.00000000E+00  0.00000000E+00  0.00000000E+00
  0.00000000E+00  0.00000000E+00  0.00000000E+00
  0.00000000E+00  0.00000000E+00  0.00000000E+00
  0.00000000E+00  0.00000000E+00  0.00000000E+00
  0.00000000E+00  0.00000000E+00  0.00000000E+00
  0.00000000E+00  0.00000000E+00  0.00000000E+00
  0.00000000E+00  0.00000000E+00  0.00000000E+00
  0.00000000E+00  0.00000000E+00  0.00000000E+00
  0.00000000E+00  0.00000000E+00  0.00000000E+00
  0.00000000E+00  0.00000000E+00  0.00000000E+00
  0.00000000E+00  0.00000000E+00  0.00000000E+00
  0.00000000E+00  0.00000000E+00  0.00000000E+00
  0.00000000E+00  0.00000000E+00  0.00000000E+00
  0.00000000E+00  0.00000000E+00  0.00000000E+00
  0.00000000E+00  0.00000000E+00  0.00000000E+00
  0.00000000E+00  0.00000000E+00  0.00000000E+00
  0.00000000E+00  0.00000000E+00  0.00000000E+00
  0.00000000E+00  0.00000000E+00  0.00000000E+00
  0.00000000E+00  0.00000000E+00  0.00000000E+00
  0.00000000E+00  0.00000000E+00  0.00000000E+00
  0.00000000E+00  0.00000000E+00  0.00000000E+00
  0.00000000E+00  0.00000000E+00  0.00000000E+00
  0.00000000E+00  0.00000000E+00  0.00000000E+00
  0.00000000E+00  0.00000000E+00  0.00000000E+00
  0.00000000E+00  0.00000000E+00  0.00000000E+00
  0.00000000E+00  0.00000000E+00  0.00000000E+00
  0.00000000E+00  0.00000000E+00  0.00000000E+00
  0.00000000E+00  0.00000000E+00  0.00000000E+00
  0.00000000E+00  0.00000000E+00  0.00000000E+00
  0.00000000E+00  0.00000000E+00  0.00000000E+00
  0.00000000E+00  0.00000000E+00  0.00000000E+00
  0.00000000E+00  0.00000000E+00  0.00000000E+00
  0.00000000E+00  0.00000000E+00  0.00000000E+00
  0.00000000E+00  0.00000000E+00  0.00000000E+00
  0.00000000E+00  0.00000000E+00  0.00000000E+00
  0.00000000E+00  0.00000000E+00  0.00000000E+00
  0.00000000E+00  0.00000000E+00  0.00000000E+00
  0.00000000E+00  0.00000000E+00  0.00000000E+00
  0.00000000E+00  0.00000000E+00  0.00000000E+00
  0.00000000E+00  0.00000000E+00  0.00000000E+00
  0.00000000E+00  0.00000000E+00  0.00000000E+00
  0.00000000E+00  0.00000000E+00  0.00000000E+00
  0.00000000E+00  0.00000000E+00  0.00000000E+00
  0.00000000E+00  0.00000000E+00  0.00000000E+00
  0.00000000E+00  0.00000000E+00  0.00000000E+00
  0.00000000E+00  0.00000000E+00  0.00000000E+00
  0.00000000E+00  0.00000000E+00  0.00000000E+00
  0.00000000E+00  0.00000000E+00  0.00000000E+00
  0.00000000E+00  0.00000000E+00  0.00000000E+00
  0.00000000E+00  0.00000000E+00  0.00000000E+00
  0.00000000E+00  0.00000000E+00  0.00000000E+00
  0.00000000E+00  0.00000000E+00  0.00000000E+00
  0.00000000E+00  0.00000000E+00  0.00000000E+00
  0.00000000E+00  0.00000000E+00  0.00000000E+00
  0.00000000E+00  0.00000000E+00  0.00000000E+00
  0.00000000E+00  0.00000000E+00  0.00000000E+00
  0.00000000E+00  0.00000000E+00  0.00000000E+00
  0.00000000E+00  0.00000000E+00  0.00000000E+00
  0.00000000E+00  0.00000000E+00  0.00000000E+00
  0.00000000E+00  0.00000000E+00  0.00000000E+00
  0.00000000E+00  0.00000000E+00  0.00000000E+00
  0.00000000E+00  0.00000000E+00  0.00000000E+00
  0.00000000E+00  0.00000000E+00  0.00000000E+00
  0.00000000E+00  0.00000000E+00  0.00000000E+00
  0.00000000E+00  0.00000000E+00  0.00000000E+00
  0.00000000E+00  0.00000000E+00  0.00000000E+00
  0.00000000E+00  0.00000000E+00  0.00000000E+00
  0.00000000E+00  0.00000000E+00  0.00000000E+00
  0.00000000E+00  0.00000000E+00  0.00000000E+00
  0.00000000E+00  0.00000000E+00  0.00000000E+00
  0.00000000E+00  0.00000000E+00  0.00000000E+00
  0.00000000E+00  0.00000000E+00  0.00000000E+00
  0.00000000E+00  0.00000000E+00  0.00000000E+00
  0.00000000E+00  0.00000000E+00  0.00000000E+00
  0.00000000E+00  0.00000000E+00  0.00000000E+00
  0.00000000E+00  0.00000000E+00  0.00000000E+00
  0.00000000E+00  0.00000000E+00  0.00000000E+00
  0.00000000E+00  0.00000000E+00  0.00000000E+00
  0.00000000E+00  0.00000000E+00  0.00000000E+00
  0.00000000E+00  0.00000000E+00  0.00000000E+00
  0.00000000E+00  0.00000000E+00  0.00000000E+00
  0.00000000E+00  0.00000000E+00  0.00000000E+00
  0.00000000E+00  0.00000000E+00  0.00000000E+00
  0.00000000E+00  0.00000000E+00  0.00000000E+00
  0.00000000E+00  0.00000000E+00  0.00000000E+00
  0.00000000E+00  0.00000000E+00  0.00000000E+00
  0.00000000E+00  0.00000000E+00  0.00000000E+00
  0.00000000E+00  0.00000000E+00  0.00000000E+00
  0.00000000E+00  0.00000000E+00  0.00000000E+00
  0.00000000E+00  0.00000000E+00  0.00000000E+00
  0.00000000E+00  0.00000000E+00  0.00000000E+00
  0.00000000E+00  0.00000000E+00  0.00000000E+00
  0.00000000E+00  0.00000000E+00  0.00000000E+00
  0.00000000E+00  0.00000000E+00  0.00000000E+00
  0.00000000E+00  0.00000000E+00  0.00000000E+00
  0.00000000E+00  0.00000000E+00  0.00000000E+00
  0.00000000E+00  0.00000000E+00  0.00000000E+00
  0.00000000E+00  0.00000000E+00  0.00000000E+00
  0.00000000E+00  0.00000000E+00  0.00000000E+00
  0.00000000E+00  0.00000000E+00  0.00000000E+00
  0.00000000E+00  0.00000000E+00  0.00000000E+00
  0.00000000E+00  0.00000000E+00  0.00000000E+00
  0.00000000E+00  0.00000000E+00  0.00000000E+00
  0.00000000E+00  0.00000000E+00  0.00000000E+00
  0.00000000E+00  0.00000000E+00  0.00000000E+00
  0.00000000E+00  0.00000000E+00  0.00000000E+00
  0.00000000E+00  0.00000000E+00  0.00000000E+00
  0.00000000E+00  0.00000000E+00  0.00000000E+00
  0.00000000E+00  0.00000000E+00  0.00000000E+00
  0.00000000E+00  0.00000000E+00  0.00000000E+00
  0.00000000E+00  0.00000000E+00  0.00000000E+00
  0.00000000E+00  0.00000000E+00  0.00000000E+00
  0.00000000E+00  0.00000000E+00  0.00000000E+00
  0.00000000E+00  0.00000000E+00  0.00000000E+00