%Chk=tddft
#p PBEPBE/cc-pVDZ TD(NStates=40,Root=0) Pop=(NBORead) Guess=(Read,TCheck)

NBOs: PBE/cc-pVDZ

  0   1
C         10.70051        5.44882       23.71103
C          9.86535        6.36033       23.06568
C         11.92708        5.09157       23.15315
C         10.20494        6.81277       21.73154
C         11.36552        6.33847       21.05453
C         12.28918        5.58033       21.83391
C         12.86133        4.31545       23.90320
C         14.13694        4.09733       23.44877
C         14.53031        4.64821       22.20398
C         13.62570        5.33579       21.43452
C          8.71898        6.89515       23.72297
C          7.97054        7.89340       23.15017
C          8.32225        8.37550       21.86646
C          9.37377        7.81691       21.18403
H          8.47903        6.52006       24.71974
H          7.11800        8.32084       23.67852
H          7.74314        9.17777       21.40694
H          9.62716        8.17517       20.18813
H         10.43010        5.07732       24.70245
H         13.95536        5.76717       20.49660
H         15.55371        4.52044       21.84723
H         12.54422        3.93771       24.87737
H         14.85050        3.52914       24.04618
H         11.63720        6.71833       20.07691

$NBO
NPA
NBO
AONAO
AONBO
AOMO
NAONBO
FAO
FNBO
FNAO
FNLMO
SAO
File=./orbitals
Plot
$END
$CHOOSE
LONE LONE
  1 1
  2 1
  3 1
  4 1
  5 1
  6 1
  7 1
  8 1
  9 1
 10 1
 11 1
 12 1
 13 1
 14 1
END
BOND
    S  1  2
    S  1  3
    S  2  4
    S  2  11
    S  3  6
    S  3  7
    S  4  5
    S  4  14
    S  5  6
    S  6  10
    S  7  8
    S  8  9
    S  9  10
    S  11 12
    S  12 13
    S  13 14
    S  1 19
    S  7 22
    S  8 23
    S  9 21
    S  10 20
    S  5 24
    S  14 18
    S  13 17
    S  12  16
    S  11 15
END
$END
